x,y,z,sigma_11,sigma_22,sigma_12,vonMises
-0.48240058283853254,-0.4912515276280228,0.008870029388832029,140.63038528478455,13.031323040969312,58.632427313797926,168.60428601802042
-0.46217153186154386,-0.47293038901595913,0.010398149755053258,106.80486819456462,7.54234396088691,59.079066437950814,145.36029734216103
-0.46268031547150007,-0.49012058049871193,0.0280706386627537,104.82177790209902,-5.7870908197874655,46.36295719643505,134.44805722404428
-0.43964239443320186,-0.45798194499403216,0.017131864041747966,82.14874282357272,-11.299169880328463,54.78230325451729,129.64413614856116
-0.4414198073414207,-0.4843964578917107,0.045320593394018095,79.25656352106049,-22.043498882988075,33.00191555543158,108.5448753493304
-0.4189468296940698,-0.4404367695807792,0.016352033668537613,62.064513271762515,-21.8436539802762,49.52450804520372,114.20549667416103
-0.4246702545423885,-0.4852249924182502,0.06779376297756294,69.21669923597203,-30.22707386153826,16.50149548543203,92.81025690826799
-0.4027739759988703,-0.44426196530035184,0.039894732324390086,61.71541334441227,-34.83542777799957,36.72668659709116,105.91850934704196
-0.4068375717981498,-0.4647518372253404,0.06750215205356205,67.05888211637703,-33.59923321109578,14.220990257640391,92.11752739787902
-0.39475206817541697,-0.4211680011087384,0.013342067850387437,42.28704903474325,-27.958269519995625,46.486600652743604,101.16888941508206
-0.40796832891887486,-0.48686707575957205,0.09613949725183708,64.63124976548542,-25.110269102884928,-16.657971661426426,85.22380063311904
-0.3822719194900632,-0.43499492384386806,0.053555667078579935,62.25388082043179,-43.77583107106514,25.75611283572902,102.50471442182948
-0.3696853818243816,-0.4074600483825104,0.014005370587000616,32.000329356065045,-28.740156316352042,42.307472874495645,90.21906070743367
-0.39462746369362367,-0.48573608341450386,0.12159139134773898,71.67919126325843,-14.808382058849645,-36.972625001798605,102.56496715654035
-0.38515321894951743,-0.45162943264646926,0.08226386508216212,72.880971629978,-46.79853101132343,5.095494350837587,104.83488507909293
-0.36562950459782567,-0.4162986734841758,0.03817698227304795,49.83502534594321,-36.202813591114975,31.86030421037369,92.97084784589285
-0.36192873946525894,-0.4236749335651943,0.06311650885702742,68.2324927543683,-45.76323998749149,19.0205682557184,104.67966943395417
-0.3803767174355194,-0.4605177589240941,0.11357812818202644,86.86023976631195,-42.801604242917676,-16.135443657130764,117.79428598615681
-0.34082088745883765,-0.39374313331858646,0.012136078042042737,22.419315756823906,-20.908310832808823,31.90907945934122,66.80644623998302
-0.3852892158177781,-0.4877796130573239,0.1513352845929327,90.67120050417644,-2.2072230335728307,-62.27976813346355,141.64243203537902
-0.34114943733144,-0.4020437680963714,0.03636522595901057,45.224239715772065,-30.438557171681595,24.991703449066307,78.87999715108974
-0.3629324511224752,-0.4328203071950393,0.08855716626856022,82.89696696549183,-51.7813705376586,7.897597358391749,118.46034003762672
-0.374364993268236,-0.4636657167551721,0.14358471440297899,111.1357296557721,-38.204202705419505,-30.260531297250015,144.23474864690897
-0.3117174529798747,-0.38448581641679247,0.01188906754252279,19.080072098791995,-5.673123190639515,17.95770275302913,38.36553586270435
-0.3410630658220998,-0.4091324550678239,0.06240682526087296,67.07681552524737,-40.60195887177228,17.510745739997468,98.95022485851774
-0.37479378257404145,-0.4746474268187,0.17126786004821815,130.922307833132,-26.16337163388087,-43.945705690334464,164.45125978378522
-0.3606437630136885,-0.43793210169869135,0.11739981591620188,100.04508071575374,-54.448431286779936,2.491753878214247,135.7923932336187
-0.3153675533151869,-0.39072029261238195,0.03552689211127786,41.397751121464225,-18.209339438191307,15.084625483761542,59.00692604088535
-0.3756903729817776,-0.483527915156686,0.19612608718632432,138.43645297696537,-8.710347130005147,-55.8841907969043,172.67159454849295
-0.34162439818384455,-0.414892269769339,0.08886693729483479,83.8255809890042,-49.00967499363628,13.62673170558054,118.71817132384331
-0.3592840721501507,-0.44151661625806365,0.14865762616967432,123.53299836221787,-51.917820652065274,5.499156864329869,156.39740412761574
-0.31865977216459046,-0.3959720729961079,0.06072282903787355,62.191827532212734,-30.42042720602113,12.23396018589927,84.46382131384377
-0.28085661081152025,-0.3781466888899996,0.013281632861237845,20.646472260975862,13.136981000679313,-2.6502309365648458,18.673402069878396
-0.340720004234724,-0.4173263654453058,0.11634144173039708,98.9297591452603,-53.827145829042635,16.20125832872727,137.10217999465468
-0.3617756707959824,-0.4472748065793213,0.18041926528753255,145.58905149673387,-41.13097767992028,21.312142386558477,173.89298866685937
-0.2888911356642612,-0.38206355668152214,0.036036929835915034,39.00095927281974,0.2031720077727428,-1.6718067062715036,39.00739689922628
-0.3743804454623587,-0.48482569247242646,0.22584945894486896,161.61317583015594,-15.683864454652223,-14.739692694842113,171.90490677162765
-0.31966394879849125,-0.39876661392809926,0.08568524825691301,76.49620177708138,-40.411522731934525,15.099175623441816,106.11335149912759
-0.2963257964389148,-0.3853085711092706,0.059153224625789466,55.769173712595425,-19.26117494168895,3.5733163210039223,67.7766860840923
-0.3451246695348048,-0.42100025823348286,0.15919886444236195,117.55146129614714,-43.68187530707289,38.09178365695565,158.79002646328163
-0.3345517328338585,-0.4106445934527319,0.13985494630636883,104.04772341576825,-46.057097957417035,35.63360801367898,146.7943570784898
-0.36536256691887914,-0.45177691799777886,0.20929545049576537,139.4069534286573,-17.38210503651929,56.33253575712008,177.98788245709346
-0.2506093083649429,-0.37485530078538287,0.01393538133204056,21.435618118410286,35.42640851092383,-24.490016266202307,52.48249108141469
-0.3191030558445606,-0.39838560198618994,0.1097919593012528,86.80090876004772,-45.15404290954085,22.50317062471707,122.52295856646829
-0.37541134866187525,-0.4860817526094875,0.2551205434346504,5.732608399543352,129.35812349383818,45.59370313990599,149.20182554395666
-0.2729090302580332,-0.37703628624764474,0.05027860591342354,47.63843224749965,0.9781429580544483,-12.586565491223928,51.952330902520316
-0.29623879428098054,-0.38495528169186566,0.08141526270622419,66.09675674943887,-28.1082182225242,7.812655075262345,84.85180012780476
-0.34858233697786556,-0.4205470674359868,0.18924858110029233,111.59063682208053,-18.15700291535468,69.9664590845866,171.7387978583636
-0.370098147867412,-0.45434620685515387,0.239191537930432,61.37240593701219,62.900086805215324,90.64226950649703,168.85119642331048
-0.3782626565815861,-0.4886757949841076,0.2824164413707954,37.79133917353946,76.02902765483178,-54.865616571386695,115.61170890876832
-0.2201877935304777,-0.37454192805338216,0.013043670325115662,16.54968137598975,61.442759398678646,-43.530027335805855,93.36399940463657
-0.24908650444621633,-0.3720539075986349,0.04141359145471851,40.64148752994805,26.592536560960056,-27.03715323633882,58.916519175327856
-0.32955417986497365,-0.4004806623522992,0.16427297078716155,95.28414199873652,-27.208054170186898,58.31851630499219,150.38281170822526
-0.3160770291481273,-0.39303894321243793,0.133260946374506,86.61744272364007,-38.08070227942791,37.49246827060407,128.3286010587998
-0.27161284554072984,-0.37401694910639766,0.0753342271954999,56.16090872329623,-5.477814627603923,-8.332182328322496,60.82737012301315
-0.2965773934850759,-0.3827941240406901,0.1044351642756546,71.05905620633182,-31.232269285224938,18.751433155571302,96.43147011423758
-0.3766496083186551,-0.4576469809471206,0.2686424266661675,-18.39488417907569,128.40079551031832,15.13366087304042,140.9756606220317
-0.35559298239934195,-0.4217589033776676,0.21928522891068403,70.18638472627504,37.49695375921368,94.49893718645103,174.61535415782953
-0.38456442660478046,-0.48624553300300594,0.31093410885964734,52.87385668565209,17.899373362548516,-35.35863769805442,76.94363628812486
-0.19020677973821676,-0.3773712180066433,0.012378558151390207,9.109687645756303,80.75415548913588,-54.09113739778482,121.02118963273341
-0.3840203159530503,-0.46547570531571647,0.29620771859717754,9.511303308603274,72.26108239359863,-47.740275223197386,107.061820843983
-0.22036999049506736,-0.36887404735475704,0.0390368995512584,34.29972528696901,48.70760561571515,-45.921726386621174,90.57957479782971
-0.3318586007941069,-0.39435619230479024,0.1900142709531868,73.63626187098671,3.819178872221464,79.69076163621058,155.5876203446197
-0.2472096982117425,-0.3663527633701704,0.06952198592923838,48.47816457632405,17.082913366759044,-24.09374046452995,59.62663056776651
-0.29688467451554246,-0.3785638043448238,0.12657806440608507,70.6461849549372,-27.14518779936735,31.702500798839782,103.2501539851735
-0.2730158334388699,-0.36949601913637903,0.10065137879480816,55.52045951397848,-11.19493896973821,5.340869371611406,62.56972827129863
-0.3118624667524313,-0.38278677370130526,0.15747641706800983,71.78844343983971,-18.397122136770015,55.995134993141704,127.35423395043497
-0.39321863166784327,-0.4840146306270108,0.33704156930224766,41.600280106811866,-12.937222405692324,-17.129974820588856,57.58867264039433
-0.366697175830556,-0.4243808576898671,0.25177429680612273,-4.075945977625139,114.62803050603527,66.25694184641522,163.68678444421522
-0.16068626886450563,-0.3834008194499914,0.01183445763918363,-0.17752297747582446,99.73828906096686,-53.49876118325136,136.20505130752915
-0.3790810129982349,-0.42929035539726174,0.2824419929582708,-32.46653484298686,122.27762160974851,-8.634527238003589,142.1249044876712
-0.39170164055006373,-0.44203978555636,0.3112379703748587,6.660858671257245,48.22883882056368,-55.65442556482188,106.49595160289734
-0.40531038765500327,-0.48553238205545346,0.3657709339553788,32.462284205944314,-40.625246080369635,5.454831874128558,64.1269395143765
-0.19117733929176184,-0.36870757601371057,0.03710278283561196,27.996600025068403,68.78190912520645,-56.804666346527036,115.1929311778878
-0.4021282066493288,-0.4543391645610825,0.3365781180664025,35.975885528687584,-10.764136526189859,-44.88925396193784,88.55797921128911
-0.22108865430023453,-0.36100129396252034,0.06533172848977875,43.26260253496012,37.34875184355653,-41.23944077048084,82.17574010236143
-0.24962524534489483,-0.3591844355154803,0.09709890998473485,46.86401234619501,7.969963043825537,-11.078721601255353,47.48121454400752
-0.27665053682899093,-0.3637618851161558,0.1265178382679741,49.42911339866832,-8.414430975001025,24.16579485121732,68.42451815857696
-0.4191850126035596,-0.48625079082145234,0.3914540453330601,24.254518066634798,-55.19677623183159,16.978392708095043,76.41030307633548
-0.13196398510488175,-0.39269073358537226,0.011493588499268329,-6.1245488555203025,116.07444627045706,-38.06347047256422,136.26508777374
-0.2911845374897998,-0.36756844358999696,0.1471347887863365,53.14061795490946,-10.386813635752368,40.5798316843499,91.7820303104609
-0.4166007909462339,-0.45613266360339144,0.36232269568026126,38.493929860680595,-50.02750748798897,-24.665414425783005,87.95133604621356
-0.310571215444883,-0.3716671275117101,0.18065986291039407,47.62729664985099,12.404612243192268,69.42806803273051,127.64092422188246
-0.43443382002461306,-0.4885578350431336,0.4160104275740044,19.15151960108768,-61.68970899661991,22.999741647656176,83.31156532996752
-0.4323070821886325,-0.4567224692628252,0.3859464298903456,34.48503407745692,-70.21628250945632,-13.52510642535134,95.34012959584925
-0.45051461451108393,-0.49163277735446376,0.43923685742528895,13.779795726480597,-58.78717488171563,24.69377368037452,79.27948875829458
-0.4474828925833309,-0.46582119247282944,0.41178087855064566,29.040452452500862,-75.17042606770178,2.5117459464284444,93.25154487190713
-0.4626325826376428,-0.47551663944988976,0.4375073218881799,22.740590238213432,-66.9668998141165,12.382268197139307,83.57349245071802
-0.46972417817549345,-0.4910870203201213,0.4601616601802868,13.88850055550985,-51.47009842607878,20.548623739722224,69.45244259954723
-0.4892397392548128,-0.48907588058455914,0.47837280940004706,13.335535817892122,-35.65665953129451,12.598312554824627,48.99884674657208
-0.4165267849011367,-0.4288886855087769,0.3489957275060421,25.81071540775565,-21.450604515972145,-61.160679699777205,113.58636862081248
-0.34745182350800435,-0.3954154278561601,0.22935145165660792,21.027707601881616,74.9852934532245,87.60504817785409,165.86778859927304
-0.4912644952329008,-0.4687527488798556,0.46093490584639807,24.585562092605436,-57.887451402243656,1.9030754348445837,73.41299280387052
-0.47564765862472,-0.4610548162419712,0.43872327175919434,26.07918307523628,-70.44804859561349,-0.7278067719733539,86.49779191119129
-0.10490215441257066,-0.4051845777693748,0.011058483956068153,-8.33781394597137,126.01775240020005,-15.728104072980301,133.20219745931226
-0.49146628055401353,-0.4472918428610248,0.44231322709071885,30.480064610872407,-73.18453525506766,-12.687556332892639,94.86096225199964
-0.16158540514000402,-0.37188822754872974,0.03536877469602454,20.704678136606976,83.56685955694246,-57.55800009840216,124.98259442386245
-0.4639267617236393,-0.4459923479771097,0.41454756158002504,33.000308659776124,-82.86926988879017,-15.394149777429096,106.78008845469162
-0.4021166178554043,-0.4128925230555164,0.324267930737506,-6.825737887489524,44.03212032105718,-70.03855137172425,130.39235431714422
-0.33184512900564506,-0.38111960675251927,0.21237611792514413,29.51013461019737,57.35859769735704,84.04869928645299,153.82050705498233
-0.35971112432285685,-0.397309350189484,0.2554346999495048,-15.781738542190595,115.78526768485202,63.1564408459885,165.67677075228536
-0.48705882355924834,-0.42764257001418576,0.4230938440547524,31.72815989996251,-81.20813002247137,-31.89192998403018,115.01872300296579
-0.4495168755850427,-0.43265519167696137,0.39040247016845714,36.8723117685385,-78.16219271814454,-34.367407705033685,117.87396922634238
-0.19297930530467264,-0.35826943637376174,0.061697631928938734,37.4675413644254,56.63609653932929,-54.70908246163871,107.09201608282197
-0.3836769431665621,-0.40097823203100874,0.29671112436586705,-37.319675727981874,114.53619373693755,-35.227039494357655,150.02861199177286
-0.0798864960429509,-0.4211051745739637,0.009800345140864945,-4.273754130055387,137.78397031694075,9.376972647284113,140.90892488038142
-0.47415666071381174,-0.414345991410254,0.40321456883084894,29.525543557823376,-78.57409680255972,-52.19294610250272,132.4307373571552
-0.43593584967984794,-0.4132175043733858,0.36698633832696886,26.5615477248936,-45.93485436937917,-64.87434874547255,129.0800947686891
-0.2242378254632002,-0.35143628226554324,0.09182612756292396,39.00508371986545,28.572390166167843,-28.784909623290112,60.901745716821125
-0.05530242174752668,-0.44004128871987913,0.008876652146262463,12.097701619934899,156.9672108536438,37.56873956244179,164.68256666559515
-0.03236790785187665,-0.4593287968169199,0.009402022804125687,34.14693237998429,181.0114082022912,54.73789369953959,191.67386257504342
-0.2558694978568258,-0.3510165545340163,0.12633547333914996,35.28389713303684,7.226472457831962,10.661358025667589,37.191273910637456
-0.010590147337376454,-0.479212557900484,0.010254074928796743,57.69195135100098,207.87104944152344,66.63782043857859,218.78767175816233
-0.4874788986569978,-0.3941194520556909,0.40351027720783184,27.982972420376626,-78.61413324818479,-68.18625587774285,152.02362410577425
-0.46034377788883746,-0.39894256676780926,0.3843940236263826,26.837207037267063,-61.6163073012763,-70.88377689580857,145.7530242703971
-0.131938884862067,-0.3786198249037605,0.03420626524995266,14.421859651590097,92.51195857809893,-46.364570702931445,117.8188367047493
-0.2867363880670863,-0.354317521223074,0.16731222513841873,30.221913062195384,16.426272191401758,51.139189027897594,92.37100757506944
-0.3674082971127167,-0.38419412440403267,0.2771545562329094,-45.064559121292405,138.18961684636457,7.857734342045177,165.9514110160975
-0.3120502660098147,-0.35862574504200234,0.2046104198273327,16.57718716955732,58.079733108664,71.65981623853878,134.5014784898343
-0.4868597537783671,-0.37019227164016366,0.392229364864216,22.829023942358937,-62.970064375055216,-88.0279673016497,170.79434279451513
-0.16350002232917488,-0.3588221025384696,0.05839455683958356,33.5500628767452,70.71477251402692,-59.55315330761384,119.9726423532643
-0.43245213392617626,-0.3851116000454301,0.35565662940728354,7.176809413249032,0.1083707926108417,-90.48773828881053,156.89114991907945
-0.40966835032365806,-0.38404924635435295,0.333093163037762,-13.067528085878038,54.15128973070948,-82.81732745158709,156.1629762392073
-0.4587401744240317,-0.37684488357138424,0.3754833626701292,17.27074515544352,-36.09064635917517,-89.76694026362534,162.47595650277523
-0.1965766600082568,-0.34634265796171126,0.0861771285355052,35.41274680733092,47.70479090109719,-45.407420150285496,89.58768578210943
-0.10258805178663484,-0.38911916412922987,0.0337212725097594,12.40567308687957,97.84138911106253,-23.89148087392742,101.12100887199738
-0.3488804984985539,-0.3678774802541672,0.2575386370422777,-30.7219259689615,133.26499364893652,44.641977258610495,169.63570065674585
-0.33560462312804706,-0.3672316826772333,0.23585807312161736,-9.903156259715715,106.45995498198727,66.45090333093476,160.41587124954853
-0.22946204469527773,-0.34068638769881304,0.11826844851777964,25.770320310561345,27.08712011109575,-10.674207380175378,32.273732862085296
-0.3882595336475884,-0.37234178874193424,0.30968590440366817,-37.793867932783016,118.65066077319905,-55.904452060003734,171.3667016634938
-0.0550176619247276,-0.42437641824624633,0.02573028050051773,18.22720045180099,123.36044777189917,32.01567674837416,127.97080125716344
-0.2614458202231989,-0.3404335305671229,0.15435923015023056,18.647637905463398,23.73706267825888,30.108879683398442,56.46393806359503
-0.07842503889030669,-0.40532546468482017,0.02919194194601964,11.588081346341575,105.7461292478809,3.043195680518295,100.59282207127674
-0.4872443476453615,-0.3443587512824803,0.38387087398399616,20.27233943078133,-37.1129206754454,-98.78518678687037,178.37107875944915
-0.033027497566962924,-0.43994111585435497,0.028129189162979604,35.79783891610561,137.0655880897415,51.411249537560394,151.9577526917011
-0.1330481729657431,-0.3631341209944115,0.05587508758184576,30.578078454665807,77.77402003513156,-52.47425753068102,113.42962619273874
-0.28947607862941926,-0.34059851920092865,0.19364789871366464,7.445453506367414,59.22414517154794,57.33175397643934,113.94197458325817
-0.01084642172255185,-0.4579278466806812,0.030626719328693697,55.624151257211935,160.18039529853104,64.89195723494319,180.2076719951136
-0.46009049573745125,-0.35193443371751193,0.3709004072727145,12.164288656010513,-5.753301744256653,-101.99527580555528,177.37013300599216
-0.3676517174983671,-0.3584057570034172,0.2894063239413334,-46.83641835301147,154.3078207103764,-16.597360181627753,184.54862870650842
-0.1672462138880786,-0.34435219076854223,0.0810548498721424,33.90010718217407,62.433041472027554,-55.39906640649228,110.17161527785991
-0.3174054350040837,-0.3437593847490988,0.2312091945766608,-11.751700463843392,114.52119597440333,58.38918601037729,157.56559494989762
-0.4350238384148951,-0.35515475866713064,0.354584498138482,-1.9422584704236954,36.43812719406202,-99.69368628728589,176.68835558465344
-0.48824112403276454,-0.3180060636094764,0.37835301280318007,29.85533375799399,-4.1917782887484805,-97.71824149848867,172.2806520290198
-0.41214541204370814,-0.3522633273452952,0.33674461840246184,-18.099787865404693,87.28979023509397,-89.63470219081978,183.38532110461048
-0.20167655859383857,-0.33329730450540224,0.11047992934070568,21.755592890136427,45.52677277656598,-29.966715798396287,65.18851965298238
-0.234697636466614,-0.32832269539043024,0.14402847071901032,8.241365149589742,38.534104925719525,8.059013546670514,37.816224171458884
-0.06252836579791583,-0.4034157738018625,0.041880247718844285,26.65206379501188,92.53971250497591,13.144454123607034,85.59139323790174
-0.46261852063359743,-0.32756646946829354,0.36925075121548434,12.179551849271178,24.09009564267602,-104.6152061373279,182.3959749771231
-0.10194792489633633,-0.3714974591232164,0.05472646830700176,30.178059513313833,77.75718841030316,-32.10685148189106,87.76607717262428
-0.38930420901801366,-0.3432855524349597,0.3181681639957236,-33.53822716088756,142.79825312733078,-65.1003933964679,197.53363685711736
-0.3459104828512202,-0.3458024378068681,0.2686284443233138,-35.79275284837698,155.2561330211652,21.605873559625145,179.84180190210387
-0.26491685128083076,-0.32606191622392067,0.18110088332606616,-0.8810254638872799,61.1429585997978,40.85185552919789,93.80686753220044
-0.03663665185801729,-0.4176290188505902,0.04607365924984232,43.356035573179305,94.02944468629771,39.56873236889719,106.49691114645123
-0.4744988382832651,-0.3034348856452906,0.3717785690607024,30.09714090604198,34.24514007155804,-95.62538066224732,168.7617462091367
-0.1366503482952444,-0.34590118484140664,0.07698070730710779,35.41614432838215,69.0568441077499,-54.73752205759296,112.0982283644333
-0.2940328966787657,-0.3246256893478447,0.22013482733107373,-11.989451033475461,113.58926311941849,50.31551414532943,148.334397330228
-0.4391227418594832,-0.32726408437284515,0.35696029767763365,1.5252556232755978,65.19012810447822,-101.10814739953918,186.60444798884626
-0.17250388991711083,-0.3288739163755464,0.10343973904737357,22.506686924638842,60.47984767220864,-44.15127547530272,93.0116514865596
-0.011863948246234369,-0.4352767643746841,0.05001755016089441,60.48002561239164,111.15978970929172,64.59442692472791,147.67770781944552
-0.365288035140614,-0.3314486176356349,0.2994516701523071,-34.830824049415256,180.72790053810053,-30.79146256185355,207.40058953973048
-0.4149842717107581,-0.32355999934460744,0.3425944945189315,-9.903402013741399,120.69076554155393,-89.92086152001856,200.29196548654517
-0.2070618552856953,-0.31901337639225863,0.13448346102926645,3.2662967049538985,54.41607132048315,-11.554064468117147,56.5201529975839
-0.48544803802948583,-0.2807065479819114,0.37401229838945926,57.34255289444359,50.70026298598433,-79.58092215488892,148.15792938729774
-0.32375271214061846,-0.32720526329978744,0.2555117859449203,-20.872294687723013,162.43817424026196,32.72388498153824,182.8245840202409
-0.07133089014504641,-0.3818756775226712,0.057074059189332456,38.714462706257315,70.01425168366194,-5.012895763875221,61.364715411726124
-0.23879842005852123,-0.31342880524578887,0.16926216818231649,-8.261504995801102,67.26728007531216,22.88703768956615,81.97754501406554
-0.4468586112254789,-0.30152110852887165,0.36193805613719215,21.63093605910344,91.30840653337204,-94.2330434856998,182.94708428616164
-0.1054904728127714,-0.3511253662888797,0.07463324222883351,41.05994885288859,66.41924223553048,-41.445937083983864,92.32313660298837
-0.26865467484569183,-0.30923853806670126,0.207072199232217,-12.69016130720911,110.9432355150122,41.36889940458834,137.88214811574593
-0.39000355828358074,-0.3159844620898324,0.3270016269760064,-16.697025086987622,170.63458733367412,-67.59293783443252,214.36058117567995
-0.33985846101319966,-0.32086575345399854,0.27914803570990565,-28.560168582983934,192.3343117328318,4.452026067529258,208.23240063671724
-0.14201761372530194,-0.327635739887041,0.09760190263651967,26.162334513832732,67.77587340932376,-50.03179963620108,104.94953366270556
-0.040880042088024045,-0.3950441326553866,0.06220253729863806,53.63999645883289,64.47252117041909,25.99903453721319,74.85652135587151
-0.4876739208288486,-0.2544538840258653,0.3742747365518104,93.5550327544288,84.97904213380032,-50.91951469803412,125.70662518993467
-0.4547312071652359,-0.2786908011542064,0.3669594790212644,48.88429802373279,107.19849835295346,-80.79673830891485,168.00359539395785
-0.1783962745957891,-0.3124691515456654,0.1256610558783169,2.528612540426522,67.83828482898761,-28.03779577846298,82.43327003415088
-0.30038537646605884,-0.30640376260577346,0.24680369769154303,-15.52810099693869,171.67445429481603,34.519402150136656,189.61483543564523
-0.4199994570324839,-0.29784764494451643,0.3504097655009135,12.654742331816863,143.78655388025177,-83.98949555362528,200.44410662368213
-0.2115809047955411,-0.3029120489729687,0.15812655725657915,-14.745010331304401,77.67815023505808,5.4835887153436715,86.52678612395243
-0.07450590921997137,-0.3599675249621039,0.07464916700867534,47.94856003996769,57.2316494418928,-19.410197531084876,62.93344288120835
-0.36317000183047865,-0.30628304857466404,0.3098769892131831,-18.012113979249534,212.9897544027746,-37.29270067352931,231.72765055954633
-0.01307586743672417,-0.41177646683169394,0.06764705072372505,73.27080161835262,66.14413612847386,55.878200431263735,119.4334253373016
-0.24190685793491976,-0.2958568409912584,0.19389853409823785,-18.329597193542277,112.34017260735598,30.529759995786808,133.46024637874353
-0.4600513475045377,-0.2572302032362831,0.3711418955935922,76.15633266934019,124.46219880666376,-62.285562270865015,153.1356102366405
-0.11015886969760232,-0.3296966113623273,0.09361978361390941,34.02555807936701,65.24897429461302,-45.42549063768213,96.87858423642146
-0.393007120974272,-0.2912900989198281,0.3376706170858064,7.38467910335703,198.80276836805518,-65.39307348878914,225.69391158809665
-0.4734625562181546,-0.23672271556652047,0.37532397528708505,110.47820071667958,125.96491456155199,-36.887054674935676,135.04880535450351
-0.42635487562598073,-0.2745006845986247,0.3587414789147582,41.01997371134585,164.39240646483825,-71.82445207288569,193.49518108148922
-0.2719197134147317,-0.29011423672113473,0.23182522540182904,-12.684588847021203,170.36049773559938,35.97294066446052,187.68779457555434
-0.1487664470149891,-0.30874666280621027,0.11797717657976772,6.32735668622356,75.21483048553617,-38.39877569793383,98.20790717822833
-0.33353769717521936,-0.2969651089438043,0.2891541755811265,-10.712934681410353,226.4133791041432,-3.915821763944445,232.05460117921743
-0.043364630934620285,-0.37243720511538486,0.07752289683674435,62.83030064662299,44.88199904761709,11.064950172098605,59.24010795909457
-0.1835210572048415,-0.29472372974838795,0.14762793749342937,-18.24684803271554,87.22282290505794,-10.0223117989676,99.1647623633332
-0.21451287748903228,-0.2844255731195931,0.1811682435337764,-25.152360680863072,116.09218199964674,18.38128115665458,134.32662764330385
-0.43375564294903174,-0.25216776384081324,0.3670374789570006,71.17205019388743,177.22443021751428,-55.3942974391061,181.8409137625971
-0.07750283216146665,-0.33736587958855446,0.09101927734447472,46.943115525663146,54.21264683007344,-28.925876690193242,71.46940363099938
-0.4846095265553527,-0.215873882060064,0.37899658842029854,145.0408448637532,148.34260223798003,-8.004730325481098,147.37321697782673
-0.3038580765670846,-0.2850690988086827,0.27019201303879586,-1.0850325024054115,225.76533379845588,16.440119434749604,228.09418788481594
-0.36475999153616206,-0.2830728836407267,0.32332529498464657,8.779893447996201,239.37212550429587,-39.523938277216374,244.8690758995061
-0.01386754253424624,-0.38737037029525806,0.08339977377740866,84.42179362633867,37.41195302076158,42.72951235431937,104.14289687229068
-0.2435412316449957,-0.2755752926100074,0.21763116115837144,-15.279658190773846,168.08789092092698,32.16219582106533,184.8203264472007
-0.11820873368593691,-0.3074077861160047,0.11234263797814233,12.314478468821541,73.75505652687312,-39.92527820326529,97.2896870510889
-0.39829353854278327,-0.26839660897490475,0.3493730939184475,37.90667333800188,217.98460859334833,-57.223224016964245,224.75459109254257
-0.44397356529188264,-0.23023718168003676,0.37520020869857,110.10614689250518,192.9711385707069,-33.2940192978743,177.3115634647959
-0.15495318433164892,-0.2887663653501728,0.1382678363236054,-18.95947419090087,92.73400578426299,-22.035663384406533,110.3356554430587
-0.1865624106002876,-0.27510411718285144,0.16877978016505105,-32.62544862794327,120.21590067904427,5.660204149198229,139.76585455377253
-0.04430671131531448,-0.34962414607833847,0.09144316210008831,65.82420143677683,35.01503017241475,-1.1777815469022883,57.08067047168693
-0.2732339231460229,-0.2687365434253073,0.25472927122487465,4.711804448347674,230.58818512014966,27.521922760032986,233.19304123195016
-0.3352940722327057,-0.27385163826831493,0.30725951303052734,17.002393977765138,265.9945906375058,-14.847429736978054,259.1929731547514
-0.40536561169289265,-0.24655159073797997,0.3613304344952577,72.96914606252206,234.18387021009667,-45.25609742586574,221.86195567398252
-0.48641749199936474,-0.18841847544828697,0.38469888866828833,178.4390786067659,192.92061604687558,23.324949019950157,190.43752686546117
-0.07250593026034631,-0.318483925479563,0.10338532520621756,38.43052146340348,54.49840189820523,-28.337734065584236,69.00478462724574
-0.2154207097953168,-0.26326173972102845,0.2034400310765989,-23.279189942413495,167.357825420008,26.945426919067017,186.07709454831573
-0.3693617325842169,-0.2610398487161502,0.3384579818656672,42.18895428710123,265.09813841529444,-38.59917230078953,255.6216069091448
-0.4528574158349264,-0.20852253818265837,0.382870568695716,143.65806849314234,209.55733790747527,-8.347624393738666,186.16219973655313
-0.09335050800929544,-0.3017329535069619,0.11285373939612504,12.69654709213794,71.82698547785226,-34.17391778596126,88.94904956106915
-0.12672001849383088,-0.2839437330345596,0.1312447623222587,-17.602088784217663,92.10092949284021,-26.925444420612102,112.19858355967317
-0.3053124444923995,-0.2622885065938292,0.2913438883898585,25.967423774935682,278.0140379708866,6.4143340394830535,266.2146410521476
-0.014176411913204323,-0.3619300309205501,0.09694374821930508,89.7414733387409,22.370796201665538,29.19054502512978,95.40786186367771
-0.1582388390591118,-0.26746833122085767,0.1574025212317324,-38.45351969958669,120.57013760034853,-5.772071069020797,144.05598853545743
-0.41411897219670607,-0.225197031916593,0.37318703005786646,108.05773981880732,244.24932240268785,-27.840785421592344,217.40861274679304
-0.24306254186782145,-0.2525014534565356,0.2405614908439083,1.8104646217749423,231.75010441840612,33.06782791621548,237.849231750359
-0.04267051289302926,-0.32687812184619447,0.103464831564227,57.882887007710124,36.557929322558635,-5.099620911306189,51.46698663030613
-0.33961576111605996,-0.25232147311968967,0.32603831224582747,49.80533895143211,297.36253798021266,-17.314004099105087,277.4781667093275
-0.37577464737845134,-0.23988832270819524,0.35397981865596845,76.89153862071123,282.1790459995874,-30.23574031029927,258.0363185204758
-0.18726044862513647,-0.253374477133762,0.18880454414620448,-34.951370246643776,164.24569676911307,18.14788165907447,186.88738901975162
-0.06778167619877616,-0.2976533752026877,0.11433746179526288,19.397191031113927,62.53216491402078,-22.970500764373305,68.23859638359849
-0.2739270188456404,-0.2466084404603359,0.2769587403845388,36.7626126015863,287.0115503672303,21.96544225272021,273.17259608393573
-0.4580307449101844,-0.1850762420152188,0.3913614572328089,172.51094511268028,235.21567245406192,15.581827166855696,212.69118647676765
-0.099445336521331,-0.2784572754172197,0.12730717605757166,-15.185464121076954,87.39129092491058,-24.2563996360173,104.69017209287719
-0.4878448165967936,-0.16086073688226254,0.3929406507287904,202.4967803824214,239.39650104745124,50.5076596537905,239.77422950182216
-0.129905645114341,-0.2605017644511723,0.14798264277808398,-42.33289505803917,116.76146724001148,-13.4046791496893,144.59329668019768
-0.4227004527768372,-0.20350852037367684,0.3849137336089808,141.55959460629512,260.498142656302,-6.652593718671227,226.1750664682556
-0.013874347938393686,-0.3354377312379651,0.10804339526044753,82.0875848621587,18.86696035129262,17.055002660621145,80.11373115598238
-0.3093839277974003,-0.2414848984526816,0.31293428204541124,60.61594428233347,320.0111821567018,3.040283049822258,294.4679938164818
-0.21420105907268375,-0.23928742676129064,0.22522366997157903,-7.806905556346969,226.8343823220198,31.997855469905737,237.3968147248762
-0.38384341174139014,-0.2195714447056087,0.36936142043032594,110.81391280519446,293.3026408733274,-17.768138723091596,258.362670299415
-0.15885337362860663,-0.24474994269630285,0.17487236727226582,-47.408598125733874,157.81631980301393,6.53828172657947,186.45016449294502
-0.3456397597281324,-0.2316329098954139,0.345316115736162,86.66604822611129,321.6142829763329,-13.406889979790353,289.1590324850132
-0.04120412965422729,-0.3019011726094313,0.11389671938086884,34.75625116046383,46.23849172834691,-6.277094769487576,43.09436432395284
-0.07104550887298457,-0.27466348549679054,0.1244654121907404,-9.538650526522659,74.75228414308367,-15.69070923432762,84.44241127421864
-0.4630026920269501,-0.16052505583940943,0.4012560523650207,193.13841831645058,268.8383502935389,38.41002822014404,249.15754907979522
-0.10169190811794598,-0.25374927962584154,0.1405563576371489,-44.19078484264412,107.12281777759344,-13.95200948255605,136.91581592924814
-0.2410377563248061,-0.22698794182859733,0.2640511829008165,40.44119928596166,296.98919815219324,35.052173761613616,285.5055861568418
-0.4891977601905036,-0.133606615935915,0.4039428767533085,208.29725970676168,285.4352251100646,70.0967805632934,283.1012484196878
-0.27829915248326714,-0.22721475291925816,0.3002440601431377,70.16899100719927,331.2533381362794,21.928337490059057,304.71512068789946
-0.4289793860208295,-0.17990695910188825,0.3978632288277388,170.1045170311457,280.58527338243016,14.240205718410301,246.05521802113864
-0.18599835163800568,-0.22967180440559704,0.20778883195213943,-21.364555843976973,214.20475237469788,25.75862143868909,230.01528061356188
-0.13047279479777035,-0.2358548142531973,0.16289158842787033,-57.096304849654544,146.41005168889805,-1.6587545152304415,181.83404138647657
-0.39361575101627205,-0.1994497439030856,0.3845729835439709,140.96094211367776,298.85032711929244,-3.550468829817893,259.02335617836087
-0.31570211651217167,-0.22181038619265833,0.33555902906940704,98.165124164508,346.7922775539302,5.38848729133062,309.7506671078657
-0.013631239025312124,-0.30743272417794343,0.11657596551980696,56.47237634768808,26.578499422362512,12.210994017667378,53.309661642722
-0.3524328575257208,-0.21118413067214128,0.36501179395598526,121.10551352991959,333.93600562485955,-4.232156010263147,292.90278804782423
-0.04243829681217785,-0.275421674380984,0.1221806132416624,1.796076094456783,58.54096456799782,-2.1779120909833125,57.78716378322946
-0.07302618802483314,-0.2488734213791449,0.1340778743264088,-42.678856873608154,91.92089945206186,-6.769069855557376,119.71414457636206
-0.4675432545328953,-0.1341024159559458,0.4140810965613336,203.29261124026775,306.85093005603756,54.586875544278186,286.43329620280673
-0.4385693048381373,-0.15817096855789928,0.4090082976194636,188.11670100242,300.1407420694588,32.3348275406274,268.6028578175608
-0.10254262760791916,-0.22716508638438176,0.1525079636644091,-64.60114231474391,131.7928873556601,-3.7901054079791194,173.49276214025846
-0.1579444736202702,-0.22100313091401247,0.1908068923872106,-40.889948513291166,197.5192168358692,17.657629214104567,222.92993321684597
-0.4908905768055096,-0.1082625634450334,0.4166441929640076,198.20330827748967,317.627174143203,76.89919947782812,308.15138664837684
-0.21048901392494787,-0.21218596751268745,0.24713139002642007,29.381702197806725,288.11213219437576,41.14417338209234,283.6991175238422
-0.36493632442717794,-0.19447188434148,0.382780563756062,147.85637354964044,336.9578402173872,3.963465344626993,292.62237809533497
-0.28584855234484247,-0.20964902590146745,0.32541974511924154,112.04328176621947,363.03155020758356,25.464404674456926,324.98563796174665
-0.401365862519825,-0.1769975859614033,0.4012446143243904,169.03124754937681,315.17017622933247,13.79087635888677,274.2275685746502
-0.24618653972293453,-0.20758490382943043,0.2898197199916337,86.08351853388956,340.8853442641573,41.927246101032665,315.50318880040237
-0.32176643603194166,-0.20212678277096552,0.358701061505341,135.55602757004246,363.00814725852314,11.34540659639119,318.32147888765166
-0.01400656722234386,-0.2784925213926119,0.12233665110644304,18.15743100131191,39.598917367830296,13.833331479669912,41.86687386129879
-0.4474888296162138,-0.133991269283512,0.4225347996452525,197.49078471357814,321.30676622320163,46.89656125847585,292.2043549401748
-0.04406120215300076,-0.2478867463098698,0.12862677777482748,-35.38063622288749,73.76354662178693,5.143988694587122,96.86089664238297
-0.13014219387538892,-0.2097750915437037,0.17648205181219195,-61.419768427363636,179.91532576219595,5.92154208819499,217.47980141783887
-0.07406030137847787,-0.22024971387768777,0.14245536108349063,-68.40742544348144,110.73343293308528,0.021785700314680412,156.57732756140837
-0.18174529299949568,-0.20382488550630676,0.22488094715298387,-0.02059480289249116,259.24855096077795,34.6120850274539,266.09986858707634
-0.375044087405686,-0.17654264307351367,0.4007833019847032,167.9186771396988,336.64870647810415,12.575705764466793,292.35915135250417
-0.47217446334825885,-0.10684198570565812,0.42939191385644926,191.1619407105407,333.422572348816,65.79276375210364,311.38698850055016
-0.4250913286800223,-0.1436460805257436,0.4230757572513775,187.08511224164204,326.3184054102099,33.67281239107645,289.5458518304502
-0.3490049120549923,-0.1806058207723107,0.39233802284595926,162.94033859723967,350.8203033352916,13.196952018113013,304.93300705223027
-0.4881493704241283,-0.08508012156510211,0.4338884132578175,179.8184902911878,337.2405979199891,74.61917227755234,319.5745261552068
-0.2910626588504201,-0.19167639197554848,0.3505604884477975,153.37618309173405,378.1057055631258,27.14093206652642,332.72459899294864
-0.10409882275990368,-0.19868907792051527,0.16391410511368315,-70.82524737690278,158.55496046588794,-0.011188631237281754,203.4344755141732
-0.15616571498297055,-0.19740053712027492,0.20499206950039092,-24.877558335294406,233.66125740386266,23.404795078842973,250.34526354634886
-0.014562215321223404,-0.24917566009046008,0.12545056127119852,-24.355947285948847,54.345274563843994,20.62130492218165,78.39621373646618
-0.2582583109971752,-0.19453814945064016,0.3175856091201478,127.35712084472414,369.42764906307315,44.099561333834146,333.8887483976189
-0.4017897088284609,-0.15395701836110537,0.4200433216255298,181.69114224129487,335.12095102055036,25.646673451719565,293.94297096438476
-0.04492399992609087,-0.21876407334381892,0.1331290047428382,-67.31749627038771,87.86413160855021,12.403935285913093,136.4848603729699
-0.3239762918941605,-0.1825277978043847,0.3816881203763932,165.39372549000726,366.4205182372841,20.28956026333717,319.76620330569483
-0.4522524635633152,-0.10717305146224335,0.44023148313082694,186.65071592522054,342.3428297537052,54.66124214052297,311.61213511481134
-0.07765007520637575,-0.1899329994929228,0.15056603572714564,-76.37810477991337,132.92383090114998,0.7627538123701996,183.45728488032117
-0.3744069225683402,-0.15800885604178763,0.418805069361014,177.19538083459918,344.3123393471608,19.917130943278124,300.2144404158404
-0.1312699898695338,-0.18286738394117816,0.1904016500195053,-41.55974870351275,214.74550249295964,8.093502441728461,238.67158820729506
-0.1989059019894096,-0.1823563819018424,0.26305781565165925,69.28914524893979,325.0196482898183,52.75421773510898,310.2699570876677
-0.42565412125912294,-0.11999831121412914,0.4427412249177032,184.228751432348,348.26024938339515,39.613526586731524,309.47306458462333
-0.014511227448321985,-0.22005223453768055,0.12582204881697295,-62.31886621352538,66.55347782628232,28.569403237727457,122.10313747686118
-0.17160178678815835,-0.17540281732818763,0.23654328702142707,24.23803765463521,292.0958772094426,43.98361679858124,290.9146416418198
-0.22028971197714556,-0.18109383177946303,0.29154048420394796,113.09876551401706,354.18882581749733,57.9700445718721,329.0354302183101
-0.14593147939238255,-0.1703179317063807,0.21133160005569776,-14.884335484049558,251.0839100397818,27.592672516099125,263.22225818704635
-0.03889851322758423,-0.1920984068372233,0.13199166126092304,-81.28341981081236,92.52955570628562,13.920629778555742,152.54895455892242
-0.3474819555692406,-0.1616256438279132,0.41355260902301055,177.7368550279535,353.6641433407999,19.56862031495751,308.153137335568
-0.10836210119202896,-0.16783010699892614,0.17697715683038512,-55.44167643896449,190.03423971318574,-1.3163180553650946,222.99732433350647
-0.29570424779553944,-0.17549526302545135,0.3750815905533024,176.47114345869778,377.53323924573994,32.20916728413814,331.90658347952717
-0.05541675221704148,-0.17599559450204383,0.13925643930357953,-83.54466499178153,112.67899074168065,7.367581601878744,171.03461144534327
-0.48408735660439206,-0.06461122723746597,0.453354510875528,150.93732393747626,337.02935406371637,71.35528672745741,317.45122979621925
-0.39957365790031296,-0.13162964014856307,0.44177534286204334,180.06428397854552,350.5387850561299,29.623059639754356,307.91824863550056
-0.2599762577703963,-0.17670242017321905,0.343173319390472,165.89187535465732,382.3322248471408,45.973329543252305,341.4862746359164
-0.08288104828237364,-0.1581352085468284,0.15814778626011808,-63.42834768626779,151.87307491723647,-5.947247837033103,191.90558523806686
-0.01292061497197545,-0.1912788799929816,0.12286592092988954,-86.74659527241205,75.84234625262951,30.75797712213174,150.64613523513682
-0.3226726760561748,-0.16267338302487455,0.4070919229907149,182.62399838932632,358.3462495262162,24.19159398153497,313.17189225569933
-0.45477528024438674,-0.08177018514095452,0.460892683694378,163.15389214996813,349.22236533449814,54.99197885511503,317.2866496696132
-0.23607877218288031,-0.17235286714011677,0.32305428185393414,159.91065057545075,376.29507779612163,60.614321337571354,343.5376236978688
-0.0333990097509084,-0.16358490226053563,0.12743245895361935,-87.56151505115714,95.28548183031009,18.136172308890387,161.4820279634335
-0.3728627086745608,-0.13937482921447025,0.44013374787430226,178.65138004546017,351.1222910425298,22.04385668558134,306.48408091180545
-0.05909971097888647,-0.14603913371728405,0.1405463510816987,-70.21816320243948,119.17212223509262,-1.2338086994474793,165.84691598442697
-0.27522668762707425,-0.16371685964117982,0.37898704831633456,195.17998635821053,369.3313986453911,43.32337237370456,328.7028377309478
-0.4263464710402261,-0.09799895673152477,0.4641061128844517,167.18546753493519,355.8623786535112,39.01714444835008,315.6913169937347
-0.13477799448970637,-0.14193923764056224,0.21399442366379293,1.792373081544124,263.6290360742498,12.492799966554411,263.6269520135255
-0.1104150745845476,-0.13652156749567615,0.18685760185627673,-23.25373001716506,209.41561729121022,-10.630788384250334,222.72038958310424
-0.011516025296943106,-0.16121861858152622,0.11655103425033438,-94.0423218675954,79.43002079946883,29.111110144505986,158.63555808822494
-0.15907712376664643,-0.14574030666955884,0.24411066182725136,51.57089485472444,309.8066450287462,47.715333779589834,299.15375280464923
-0.3459484847923929,-0.14422440018205704,0.43698950548982496,177.77234163624303,349.1827257563436,18.640358268179067,304.13638300921826
-0.48764692336826326,-0.0412266105202388,0.47139031034649176,112.81699783513325,322.09572346314735,66.86182773675499,305.8544908318851
-0.25671822183543275,-0.16234630346624843,0.36238800579959934,195.49961535669036,370.10337303367567,56.64723829960671,335.36289014459834
-0.03549494412387689,-0.1355613127386364,0.1230988316085618,-76.66740950979163,93.92253799898424,8.595409653513608,148.73390907730138
-0.2994298588930189,-0.1592590768692365,0.4031187670440196,192.77142644743216,357.4959199165884,31.710570977373138,314.74726069540435
-0.08610170515488606,-0.12744608087206655,0.16263727469882308,-35.92465733052366,160.8223886975198,-20.203022605916903,184.81449424482904
-0.18150419523076983,-0.15040766758283197,0.2733066961080077,105.64316226736841,340.9142876088809,67.63024462474989,324.1748228789545
-0.3987769606858804,-0.11190328488778256,0.46432854843030047,168.1741718178142,356.99757765933,27.38830637658933,312.9575187400794
-0.061944231327107,-0.11487881761415374,0.13831936586248286,-40.980337145891966,117.92450151912243,-15.091876410463506,145.2634025551704
-0.20062376814021976,-0.15127690270248348,0.30293796397584166,153.96222178957834,357.21533605506636,76.26027492875176,337.2779029992846
-0.0119799525106229,-0.1319793481654174,0.1076227148052922,-84.73311932655872,76.51301557606827,23.260876303416843,145.39716173778262
-0.3712454546256529,-0.12226122983284916,0.4634103739456993,164.77119351764426,352.602775739943,18.633922130635455,307.28025097351866
-0.31995254056258543,-0.14589610823862495,0.43328545827093407,182.7686537005505,343.2649080694283,20.19073868852194,299.53315436408155
-0.03804060797626168,-0.10494502393809896,0.11516465036553725,-49.14570821112011,87.98562866992887,0.20104799751052838,120.33706321117931
-0.2574702714324619,-0.1507996659398932,0.38696259600659233,217.92592816215782,343.6523013380835,49.497682235709526,313.1260597367414
-0.27891088746788273,-0.15261746952251076,0.402838924090322,200.8822540450849,353.29661540606213,36.561505949409025,313.38696391236476
-0.11009661417463852,-0.10340938348273555,0.19243776323925893,14.642875001624098,215.9919242229684,-29.07350580704872,215.0348543604827
-0.09038578371129742,-0.09693422832257971,0.1661656870798043,4.897145585104731,163.05872064453604,-35.81334952429796,172.22483598960383
-0.44971578881587665,-0.06100321623126987,0.48587219906929,135.85619517835423,338.6917536438283,50.852704980747006,308.0805569618317
-0.013180701761793912,-0.1033385648619896,0.09562905621517606,-64.53607053317134,66.83228813769048,17.551723275175505,117.7656204862607
-0.4702750585516033,-0.04073886673640162,0.48827255762015587,120.10922626318961,311.78264239614793,62.665764855108186,293.2024294701519
-0.07006333390313951,-0.08947318275376041,0.14065849240221034,-4.492254312146887,117.94717252932531,-23.912196528693187,127.18861576158602
-0.12965953476765296,-0.1098843606744394,0.22120933550582347,35.4297357773571,275.5983316648195,4.495350427998892,259.81908137881584
-0.49058146861006,-0.01866317312068038,0.49072868024133515,89.26772804261051,275.62602289701726,68.03253532337499,270.59046639166365
-0.42338256558936394,-0.07913083852834572,0.4875205924072824,145.56666320052287,349.38828176557945,37.090130459063474,310.69208529486224
-0.21718466981796447,-0.14824039465970495,0.3350193261511269,197.06910847486236,363.4269145728964,74.53900611547813,340.5338867109287
-0.34353484095299164,-0.12917540295481905,0.4616860045903666,166.08504465475872,341.50685495794113,11.364920701740644,296.4447284964132
-0.041020529092948975,-0.07365418485550801,0.10260110100428528,-17.90213684296662,77.80415629640646,-6.347878806150895,88.81284022889099
-0.010454148161873452,-0.07934265134766723,0.07918384652104897,-43.545039916253245,55.6415170046681,13.511622053549381,89.23425791932098
-0.05960659322475844,-0.06885579209497969,0.11972493838287789,-0.3272961162597312,94.69002950291974,-19.496920547575485,100.68609745854573
-0.14867799422784095,-0.11500644856028426,0.25195796781230256,81.68140758648696,317.0145411304592,52.963735830963834,299.48514091363796
-0.29473754624890885,-0.1440226307249797,0.4307261684648402,191.11486824317012,329.5388007212649,23.619574638294925,289.50751714219604
-0.023974514053133868,-0.0639922432121017,0.08004683056573944,-27.078525053844082,55.922083630486036,8.094491058242161,74.6416496052566
-0.3967039917006208,-0.09482756476850487,0.4878799933974828,143.82479241121166,353.43534788014233,23.759498429942973,310.5847578368373
-0.24082558485124447,-0.1462832082588794,0.37761187983995287,216.1556649315304,353.619888478541,60.648197183768666,326.14102217813536
-0.007792620105287448,-0.05536627452644953,0.05907031930165845,-24.453121146426295,38.73030110560635,17.029264133070345,62.57040525078387
-0.07789428316491452,-0.06386927169315078,0.1401002559424524,33.85019736163938,115.0316425659532,-32.95337681738715,117.22647303471263
-0.009319507713091852,-0.03334799894536979,0.041451120135634976,-8.461834913188937,22.619279702761105,15.109642686310973,38.20391316859813
-0.02766585200292787,-0.03747410096130668,0.06320759853251068,-1.7200536940701525,45.47844784315439,4.765268053773,47.0913634758978
-0.010323615367681312,-0.010952326107551515,0.02119853353632809,6.1491555339732,1.7155267267080916,13.382644303252995,23.822082417538493
-0.09552101673933631,-0.06394236829544452,0.16685002973839735,60.85982956723896,150.96753064755313,-47.02369587549153,154.7286007845622
-0.04478980208428929,-0.04111968930826367,0.08444589935394113,9.02521088443887,63.9232053816309,-5.507224277185227,60.677003605236614
-0.03047552598050708,-0.012037349542385422,0.043002762956079375,13.13887884220562,28.296279638813402,1.5799076495746363,24.678259932825465
-0.04943984521212877,-0.013014372932065612,0.06508856913772879,22.741948145088863,53.50289408111676,-5.6099161806062074,47.512201762751985
-0.16633792505321612,-0.11963138098679756,0.2828986498735338,141.61659910776098,333.6505698343228,84.77742081949967,325.09865909556277
-0.06203340195360916,-0.04035100786864592,0.1045346045824246,25.713146630783825,82.26975301038651,-16.751338420337788,78.45945426925812
-0.2573995798883651,-0.141579302346316,0.4110715526706218,213.4195373066578,323.6385676275016,42.79589268787816,294.4715492121014
-0.1113912935018735,-0.06874383529300314,0.19585394112272497,71.44824309611484,203.5778162428267,-54.17485003832868,202.01050599870337
-0.0673049081053589,-0.01300061256848444,0.08773771450133112,40.28425302251337,73.48716390634891,-12.811418777317545,67.49226732844001
-0.07951309607967195,-0.03879500430878375,0.1277393452256985,53.85164621305999,102.67174648724829,-30.083319366606233,103.08958759753457
-0.3157741551901745,-0.13268445491040162,0.4596557033678488,170.23399190451144,322.15800657004974,9.521442822172592,279.63390948660316
-0.36923787576146017,-0.10743153810273919,0.48769189858036854,145.0681458628831,348.1054865493125,9.729297205434388,303.3268153061278
-0.18222010073289288,-0.12292878770893544,0.31373887654714805,194.72587612266466,340.0160366934417,94.14084404206815,337.5005880741954
-0.27026867452986963,-0.13969385023322486,0.4277230645646036,205.7016942678884,311.10504999522675,31.4862853532968,279.42595043042405
-0.08363054022481184,-0.012648213375455152,0.11200589885171264,67.03425769846199,99.0535713851,-22.11413312249129,95.56319234110441
-0.09546856230991144,-0.03680228035982078,0.15395306815188947,103.03481560563954,122.10680601763303,-43.72765118301947,136.679608919718
-0.1265022887242172,-0.07822651844837579,0.2282214815073004,68.33614811786504,285.8223319074357,-7.87845317653832,258.87921396152245
-0.22412056878610567,-0.13944081288620955,0.36769052465202334,224.89450704479555,347.72727869419066,72.98648004452014,330.56152759644925
-0.09720256915992904,-0.01157276014309826,0.13640382983228808,92.00180891170919,113.72318365000447,-27.334520998960368,114.78712839969553
-0.34093777461810554,-0.11677648679177824,0.48718004161611805,143.08870136615417,328.414106008114,-0.08002150470188774,285.197953630557
-0.28768721405916714,-0.1329030853599756,0.45764417756713366,179.60822442617635,296.8992653334215,12.0366353219503,259.8410666671032
-0.10765349893683004,-0.016857755963684738,0.1648088075046985,132.5354092718748,127.06360623383289,-38.72014581776216,146.17837309497872
-0.19531926433689667,-0.1235945542493776,0.3455690002295002,234.3979073899145,330.19956102988766,90.75793008835328,333.59713516215135
-0.14019481573535633,-0.08355281836482725,0.26035123434885726,115.01793246203836,313.7252785141993,62.99003490159268,295.75644669488645
-0.23676596578296788,-0.13222919785668205,0.413557029232305,228.12259131337322,298.03396058714515,50.518915900352155,283.7822431610223
-0.11629199439848543,-0.040954855750972574,0.20658335960921753,123.08925639683373,199.33272747105994,-59.86667948451562,202.73342600300776
-0.31195549653566373,-0.12286032713168415,0.48651808895142246,147.22356345843207,297.5971915528463,-7.472036858223581,258.05627496021253
-0.11493728307303593,-0.0172753787016281,0.18950133457020757,180.2744085302001,128.99797614814986,-44.01125821247807,178.03167953448005
-0.15248976032039763,-0.08880225234622868,0.2920882673806575,186.07760864597537,310.37345656999906,101.39127734674226,322.5578735093828
-0.2587087533366864,-0.13031727300993812,0.4532567615879309,195.23385505425946,265.27948895488305,17.807507504159297,240.10258244041842
-0.12541303131409923,-0.04772992158633492,0.23752749043066437,100.54742702267157,289.6610994260494,-13.425759632541723,255.79173640067418
-0.21608871281465383,-0.1240335888972449,0.404129445290996,240.91316440304166,288.75399277639707,60.57999661704939,287.8596723467684
-0.20311591824784692,-0.12107501881579648,0.3794061027304436,251.31215021380072,306.65606215501214,79.04899938309384,314.4448693422023
-0.1644884467617691,-0.0952783814699732,0.3229927478241084,236.92178850121127,302.3476072164691,106.65293924354157,331.71949287494255
-0.2823452600986416,-0.12580743199625247,0.48569083963206205,157.49500997108404,257.1793726798637,-8.350686191135122,225.05697481485942
-0.12178137347291494,-0.013492241291398348,0.21851569938245197,219.8043835823386,165.39175352009102,-60.433350221634115,224.21225702313586
-0.1329027651727638,-0.05129884076889064,0.2692723456055107,163.40696979107372,295.0273898773053,84.25909401532884,294.6731266025938
-0.1761223231530944,-0.10145144022524408,0.3546577764686291,264.6012518496441,296.0544576716974,98.08134290474456,328.9156939856736
-0.23044442208830768,-0.12454180376962733,0.4474345821664037,214.68512620963693,240.7734693316299,30.83588250815751,234.99710476602607
-0.12500299572358736,-0.01599078351280194,0.24687894589965848,136.02620451194377,294.8370222991602,-17.75721349039811,257.4342495318625
-0.25237088623497483,-0.12570789056577153,0.4842931088309041,169.79929619544978,215.87549888021937,-4.62392052279122,197.0854285647574
-0.13919253719045596,-0.0566853347413426,0.3004167105316969,248.55165456228238,262.4946644148797,109.35226376546068,318.29490013151593
-0.1843375655563015,-0.10467897395679056,0.3906377024438367,270.5424587477546,271.81744695257515,80.11087787216798,304.61950739300613
-0.204802960739474,-0.11557304659490318,0.4360782509953725,238.53036858694895,231.307363941573,47.013326284996324,248.71019504456316
-0.1470351032596704,-0.06688977012222042,0.3315872257289076,288.32187838940206,257.42671248447675,106.08360699324967,330.0567520677626
-0.1263002677285678,-0.01740773244740198,0.2772526451517719,282.6311420219754,201.54247032040468,87.38128038064514,294.0136318502833
-0.22252518392515155,-0.12242025653634388,0.4821493378712789,186.40985129555327,174.70018287088718,3.3175911405099505,180.9308450149129
-0.15836899734380228,-0.08094151868026801,0.3605729915594707,292.1341851670121,262.92044368632816,97.62004921710022,325.96090915752796
-0.16428155936687017,-0.08779227568889432,0.3897519894086084,289.6627335280062,248.63058469196167,83.17065740526922,307.3348772891182
-0.1818739441875612,-0.10366551172579357,0.4263452451175688,262.3095223881014,225.50894291985267,58.098153382779,265.7698478763493
-0.12564884063903647,-0.020142653762223264,0.3079101601942678,334.3926468548759,191.5155790376815,70.82284017173797,315.4407741024744
-0.18670742153011427,-0.11046105737224005,0.46449780421889086,219.97572699830567,163.22844606483193,30.614955878765198,204.7886143164066
-0.15585697071100288,-0.0830043221714251,0.4104831125452164,295.31197972423746,215.59833844191374,72.0081416751718,292.53812428392905
-0.14642174553442855,-0.06897734998015516,0.37782443882813865,311.7927954942403,235.94531967099812,86.74984351358478,319.2107398595077
-0.13392969037836375,-0.04667726936702176,0.34418917080097766,324.60565724342985,224.28236625281798,87.2758944658863,325.1450951271696
-0.19486410155987727,-0.11737977334145194,0.4853846113870925,201.97658857334574,137.38845528489242,9.357450539218158,179.39778179028013
-0.16191512111738182,-0.09141043333599677,0.4284091762431296,277.2186255498138,201.28235266703436,63.068673008397234,271.1060811531835
-0.12432929214566252,-0.02412502647944608,0.3307958789960155,357.8779554764973,185.84338845764407,57.10657582135751,325.4053274848643
-0.16220697105957713,-0.0990508421154372,0.45962193776606813,242.398773908139,157.40805153425134,44.63688207793334,226.6192739149186
-0.13229346907755296,-0.05135492200096315,0.3726100672144344,330.4231845520539,219.93853017727912,79.65648068828347,322.3586715851098
-0.13826625722791736,-0.06613588663263612,0.4035868574451591,307.9261188940426,211.660670416198,75.28625601616432,302.40196158293327
-0.1218614976000482,-0.028678155984875543,0.3537415603338828,350.4070103728105,202.67294204007555,70.49351410409443,328.2550551660986
-0.14326908418942544,-0.07789151990641155,0.4292877406581406,281.90102824168576,185.40747821465055,66.3450645329136,273.4640135609388
-0.16591715961634673,-0.10935708747518208,0.4887101208043648,208.30000161944687,107.33241235664818,16.53961466399358,182.68134088885583
-0.14719516544800929,-0.08875245696700307,0.45299606803113934,264.3724522976041,157.70291533365432,54.39535608261666,248.8920667024304
-0.11378597302121315,-0.009261668977690192,0.3463143692148554,362.67196332673103,186.56019705362158,40.08713724755138,321.7086304126844
-0.11671110173123472,-0.030377770203279312,0.3754577376949408,343.02547968015097,201.50226577494655,62.518647157210886,317.60821018237243
-0.12234302329081638,-0.04881782246240362,0.400705193030936,320.65818435688914,201.9929254011111,69.90167190829445,305.795453860621
-0.12658887796225607,-0.06353167170097553,0.426686598260668,294.482723655491,186.0587343098618,65.50590947529743,281.81539495499555
-0.13499558509195927,-0.07746853735903289,0.4453993986993869,281.9085189561369,178.87004112405884,58.830179675421356,267.2543477939797
-0.14014924031541323,-0.09822470778807647,0.4866793187671178,222.49640651724252,98.61376491669836,31.84371878052044,200.82376476490273
-0.10490646752869752,-0.009651236620894675,0.3718378810861018,355.35897765087765,185.67588976062552,45.16601805480762,317.6379263194268
-0.10666061577646244,-0.029854549232882704,0.3998819932345369,333.36110217138554,187.46196706830784,60.4480055655011,307.80021070732516
-0.12341909820141748,-0.07645369971342057,0.46213067919708134,257.03723530316165,137.04475291618334,56.54296794299546,243.34157454733835
-0.109698522785338,-0.04754082560834261,0.42589336543746686,305.6322829533546,171.83358808694354,63.51575156874034,287.2677055553925
-0.11636205181985752,-0.06481350140158905,0.44783884052610673,275.40316584296795,143.78551119291274,56.70685882723923,258.0100686303079
-0.11295338582806395,-0.08539877140511756,0.4893472043205261,230.73628576618782,84.99936132646492,39.381160512150366,213.31740547823895
-0.09287797813206607,-0.00981733357297945,0.397236422832123,335.29249802396134,178.10645898366153,50.17248994540524,303.2771779379024
-0.10692948241082532,-0.07219959357851424,0.4749901738527043,245.52308930075432,102.4660702508422,50.19852056130844,230.6139007422886
-0.09318205494582749,-0.029381518827782577,0.42436039581264834,309.43521269782576,164.93147953086986,62.13089546651681,288.95965265552616
-0.09706563581677166,-0.04986426106920404,0.4503393997765072,279.72518803650223,139.28944967111855,64.61862432929813,266.85513662213424
-0.07771866496225487,-0.009797970894516764,0.42204021397059555,310.2226703488267,156.51684596276078,56.20001057797704,285.7549263376538
-0.08577443371863468,-0.06915601205729169,0.4918262420803835,227.8525416504566,67.07041597557745,48.9858561899227,219.84517053167374
-0.0779628136407932,-0.030079466012309763,0.44766172119275777,279.9456232982188,134.9512879064968,62.93299594869081,265.86475065491965
-0.08229735584633496,-0.05118381600557971,0.47100496603324743,254.68338307419876,106.88245809679319,60.58906631022029,245.11100406262273
-0.0602990022612851,-0.010000421843908832,0.44564985371517457,274.1614388988733,125.56840167416141,60.82480749614486,260.0093767842107
-0.06406566303340974,-0.05122662601300194,0.4904538117828486,224.1872476198628,64.24501887393244,56.44033889164317,222.57799993139295
-0.06099285910725803,-0.030769843569185096,0.46915301875475246,249.3585486230565,96.60623957796517,63.0555213001889,243.62031094926274
-0.04121199218328047,-0.010211353870668651,0.4679404549028983,233.68760590132226,86.73059896314014,66.88504710268042,235.1277450580772
-0.042103910653457,-0.031251033993347,0.4898537318814079,214.53918759283346,58.15263122706739,62.489536451689524,220.5620088991409
-0.020942108575276296,-0.010448844544102743,0.48946155325544305,196.79525019943057,45.89705578027524,63.086749399008454,209.14684196482042
-0.017599417161467457,0.008748472371977178,0.008870029388832029,15.101136153233526,-8.746797332130413,5.294489177501568,22.819557424655397
-0.03782846813845614,0.02706961098404087,0.010398149755053258,27.571139782720657,-5.196082381863079,-8.25777692393234,33.68978441436806
-0.03731968452849993,0.009879419501288067,0.0280706386627537,21.60934790145835,10.799261327655685,-1.458357127584156,18.883945122137796
-0.060357605566798145,0.042018055005967836,0.017131864041747966,33.139364856050484,9.127265915100878,-22.033756156051794,48.327134426548874
-0.05858019265857928,0.015603542108289292,0.045320593394018095,32.47511177076973,37.72915384240157,-11.646502204319601,40.740477254503276
-0.08105317030593018,0.05956323041922079,0.016352033668537613,35.80595788364638,16.627985012061558,-34.07088620036346,66.67571847328962
-0.07532974545761151,0.014775007581749822,0.06779376297756294,42.65936208570186,65.7129357633095,-17.48246787739719,65.20467183417952
-0.09722602400112967,0.055738034699648165,0.039894732324390086,38.435273013395445,49.84502152113778,-32.43507689155774,72.12552953301085
-0.09316242820185022,0.035248162774659586,0.06750215205356205,55.4161208989568,75.2585053209423,-20.254189800761665,76.12457725692674
-0.10524793182458303,0.07883199889126158,0.013342067850387437,30.38773282854858,25.82365954672116,-52.09478256528244,94.58938811227831
-0.09203167108112514,0.013132924240427946,0.09613949725183708,68.54834996817398,97.17927157608895,-18.637142853380865,92.32138252312147
-0.11772808050993683,0.06500507615613194,0.053555667078579935,44.4907178149505,82.15395092858832,-39.21187956732918,98.41911335877559
-0.1303146181756184,0.09253995161748962,0.014005370587000616,22.294707584417807,45.623258155180224,-63.71655708171697,117.22106214496547
-0.10537253630637633,0.01426391658549614,0.12159139134773898,97.37349143037325,114.21979687898991,-18.11248683690567,111.31021946836074
-0.11484678105048257,0.048370567353530736,0.08226386508216212,67.02414721643929,105.32577909505278,-25.274839544322763,102.1902053539946
-0.13437049540217433,0.08370132651582418,0.03817698227304795,32.882739990176205,78.14738545723179,-52.76676920586266,113.89286230240592
-0.13807126053474106,0.07632506643480569,0.06311650885702742,49.531002736614084,116.77880284831011,-44.095536890484645,127.04206761660116
-0.11962328256448063,0.03948224107590592,0.11357812818202644,97.41753898649368,130.37222415425563,-16.868236673406674,120.99654841862055
-0.15917911254116235,0.10625686668141354,0.012136078042042737,9.586859106291527,80.54258622762812,-78.35185717637775,155.6403103521086
-0.11471078418222191,0.012220386942676076,0.1513352845929327,147.05982484333208,133.8116349242676,-12.17309680254948,142.47239377292368
-0.15885056266856,0.09795623190362862,0.03636522595901057,22.38872024125363,106.06787959223799,-65.91806354578776,149.70804620106617
-0.13706754887752481,0.06717969280496072,0.08855716626856022,71.99340193934715,138.94083212522813,-32.179972522795524,132.63270138309005
-0.12563500673176398,0.0363342832448279,0.14358471440297899,134.20345371853344,150.1774114443257,-11.695732753032571,144.29090444533983
-0.1882825470201253,0.11551418358320753,0.01188906754252279,-5.982480508173921,124.74240869462926,-87.81022566424092,198.6822458654563
-0.15893693417790022,0.09086754493217608,0.06240682526087296,45.02280615047203,139.1822778055716,-51.65276075101308,152.10656098667502
-0.12520621742595855,0.02535257318130002,0.17126786004821815,173.40578548511792,152.80683378167336,3.7477759561766195,164.2073181211448
-0.1393562369863115,0.062067898301308655,0.11739981591620188,101.20461524176214,163.28783806837617,-22.12395256413232,147.8114245012479
-0.1846324466848131,0.10927970738761805,0.03552689211127786,10.420115827675275,147.60744808814437,-77.10644629784997,195.4345491997258
-0.1243096270182224,0.016472084843314028,0.19612608718632432,209.23015826904754,151.4148027041921,12.273168673473382,188.34821602825963
-0.15837560181615545,0.08510773023066098,0.08886693729483479,69.80136107357865,167.27085524470016,-40.84313713635282,161.80395919572757
-0.14071592784984932,0.058483383741936346,0.14865762616967432,136.74336366424623,183.42039033842727,-8.473285060813069,165.75782225220374
-0.18134022783540954,0.10402792700389207,0.06072282903787355,35.37538801560758,173.42381990370666,-62.758678769082266,192.3753096151587
-0.21914338918847975,0.12185331111000042,0.013281632861237845,-23.317184269103276,185.77895339140306,-96.00872963920403,258.92543559062375
-0.15927999576527602,0.08267363455469418,0.11634144173039708,97.06665983323973,194.07162580869849,-30.492461093701003,176.17383023652874
-0.13822432920401762,0.05272519342067872,0.18041926528753255,174.03964998589294,205.7956918413727,11.114361599680322,192.86172111725415
-0.21110886433573878,0.11793644331847786,0.036036929835915034,-2.142128157484599,198.78034604057322,-83.02310321173302,246.21643865140155
-0.1256195545376413,0.015174307527573538,0.22584945894486896,236.9885253556857,182.21783262315577,52.37235600225353,233.26370323938613
-0.18033605120150875,0.10123338607190074,0.08568524825691301,61.742851247251224,198.25549285732976,-51.76870971531482,197.27280258709746
-0.20367420356108518,0.11469142889072942,0.059153224625789466,24.446657575660936,211.17290782647837,-69.81031574295918,233.77254939794872
-0.1548753304651952,0.07899974176651714,0.15919886444236195,140.99925538217468,223.28724180588216,-17.301225069700138,197.87027241951859
-0.16544826716614153,0.08935540654726809,0.13985494630636883,120.72619365188557,219.40710433491623,-29.982851577569228,197.28918081318213
-0.13463743308112086,0.04822308200222114,0.20929545049576537,188.0443503435863,237.755757741476,27.105498085875965,222.22505509026698
-0.24939069163505712,0.12514469921461713,0.01393538133204056,-39.45519239879388,244.1637250195553,-96.70602660777604,314.42380685453077
-0.1808969441554394,0.10161439801381006,0.1097919593012528,85.19687111766605,222.12157773804435,-44.94455897650724,209.12311890093758
-0.12458865133812475,0.013918247390512506,0.2551205434346504,173.36887117050767,296.85179134683756,-52.67221805277771,273.92695962576636
-0.2270909697419668,0.12296371375235526,0.05027860591342354,-2.1696822045483515,240.30462239695072,-82.807061201762,280.7907261355194
-0.20376120571901946,0.11504471830813434,0.08141526270622419,45.47311427661048,231.7513860641126,-63.736938098700776,239.63564767577384
-0.15141766302213444,0.0794529325640132,0.18924858110029233,172.5671721836314,250.1608173637378,-6.255731453270755,222.05341957283318
-0.12990185213258798,0.04565379314484613,0.239191537930432,174.44038513974755,295.00408055863005,7.887836990232259,257.26034284486025
-0.12173734341841391,0.011324205015892375,0.2824164413707954,328.2675833342082,174.71012377447246,-53.92199468707723,299.4232924055941
-0.2798122064695223,0.12545807194661784,0.013043670325115662,-51.97248825562649,292.90237778104256,-96.22632147990994,362.62145919843886
-0.25091349555378367,0.12794609240136512,0.04141359145471851,-21.010852102941435,274.82072238458693,-89.57491749169914,325.2892565730662
-0.17044582013502635,0.09951933764770082,0.16427297078716155,145.27016356456073,257.7683957502309,-27.775079226817383,228.94600746787302
-0.1839229708518727,0.10696105678756207,0.133260946374506,106.28751100700893,245.4189552480493,-43.78038022074209,226.25802474314943
-0.22838715445927016,0.12598305089360234,0.0753342271954999,24.56918874281427,269.49719200644745,-74.88207771463276,288.84776413771334
-0.2034226065149241,0.11720587595930992,0.1044351642756546,72.41464556686269,252.09521619506214,-57.459144971581225,245.8559602973619
-0.12335039168134487,0.042353019052879415,0.2686424266661675,213.92294685399781,291.8629000422019,-72.06817653369494,289.986679287233
-0.14440701760065805,0.07824109662233242,0.21928522891068403,183.30216474973707,284.5422093345194,-5.644962382952315,250.00469268022508
-0.11543557339521954,0.013754466996994064,0.31093410885964734,364.9045568573239,168.47413697727794,-14.877050661186573,317.37339217236115
-0.30979322026178324,0.1226287819933567,0.012378558151390207,-63.99804509425085,320.7053142440256,-90.1985548052754,389.7172043804082
-0.1159796840469497,0.03452429468428353,0.29620771859717754,309.5056884459506,220.2836051551365,-84.59702241216213,312.4253152621616
-0.27963000950493266,0.13112595264524296,0.0390368995512584,-38.5017580450873,311.1435236718186,-90.78332427242374,367.41949629686553
-0.1681413992058931,0.10564380769520976,0.1900142709531868,167.23551028289125,281.93388546988984,-27.2224793233066,250.0565228396498
-0.2527903017882575,0.13364723662982958,0.06952198592923838,3.2873866520826596,301.22746207777595,-81.09850213356911,330.8918869172657
-0.20311532548445754,0.12143619565517622,0.12657806440608507,94.87099059244706,268.62504503134767,-55.007558513116855,254.46549871199244
-0.22698416656113007,0.13050398086362097,0.10065137879480816,53.06010136747545,289.3027174645787,-67.71374736594315,291.4042894707905
-0.1881375332475687,0.11721322629869474,0.15747641706800983,133.75588180875593,276.70898286896727,-40.95905311883716,249.95994720744525
-0.10678136833215673,0.015985369372989222,0.33704156930224766,364.98283193988215,177.64511791515164,-10.578102926415838,316.6520584135584
-0.133302824169444,0.07561914231013289,0.25177429680612273,191.89989465249442,313.29422181851146,-38.057099254487945,281.4298122823796
-0.33931373113549435,0.11659918055000862,0.01183445763918363,-66.84389642733407,328.753229743691,-79.62732504216828,391.8462352450875
-0.12091898700176512,0.07070964460273826,0.2824419929582708,232.95743803510163,292.99656652607985,-80.97430820285112,302.5408108135891
-0.10829835944993627,0.057960214443640024,0.3112379703748587,307.7548716120667,228.39682034515545,-85.0834369220857,313.53709212505134
-0.09468961234499673,0.01446761794454654,0.3657709339553788,354.6992616784047,176.43303819747985,16.111020935837438,308.44482457201303
-0.30882266070823816,0.13129242398628943,0.03710278283561196,-49.86443122908792,335.18022555568064,-88.34202031143316,393.6480078319282
-0.0978717933506712,0.045660835438917524,0.3365781180664025,343.2894372284759,191.28381341914113,-52.79499718766823,311.6622490988866
-0.2789113456997655,0.13899870603747966,0.06533172848977875,-16.347703475188347,327.3482033002106,-84.2527314161357,366.157142804445
-0.25037475465510517,0.1408155644845197,0.09709890998473485,32.61758457121538,315.4974184642943,-74.40661365205673,326.9874563613021
-0.22334946317100907,0.13623811488384419,0.1265178382679741,85.6386494075722,298.2904375864716,-63.3200152533386,287.7398933356857
-0.08081498739644039,0.013749209178547661,0.3914540453330601,336.9683166954121,167.1555037048755,31.09579830928012,296.7546902460665
-0.3680360148951183,0.10730926641462774,0.011493588499268329,-57.875584136727085,316.80538811562275,-69.94580578891052,369.76719880959143
-0.20881546251020022,0.13243155641000304,0.1471347887863365,110.91267422391161,295.2323751913319,-51.61308336901878,273.3322072849062
-0.08339920905376608,0.04386733639660856,0.36232269568026126,336.0220575791602,174.12303955292657,-16.337262691967965,292.4400665387178
-0.18942878455511702,0.1283328724882899,0.18065986291039407,154.66476015074238,298.31606837301103,-43.27689574845055,269.0601245722974
-0.06556617997538694,0.011442164956866396,0.4160104275740044,303.2602460111044,147.4346644922349,46.012088982155774,274.48865455183955
-0.06769291781136749,0.043277530737174774,0.3859464298903456,319.4205122319207,159.30804971127475,6.351621358112972,276.84524337163435
-0.04948538548891607,0.008367222645536243,0.43923685742528895,270.4277053628957,121.66157212091443,58.3472837221207,255.43147561042903
-0.052517107416669095,0.03417880752717056,0.41178087855064566,286.96122221234964,140.59647703988296,36.10766549491788,256.28044412712245
-0.037367417362357214,0.024483360550110245,0.4375073218881799,252.20723362252687,112.9478269076578,56.332937483282535,239.58222150885894
-0.030275821824506555,0.008912979679878696,0.4601616601802868,225.32653373113513,90.795232099991,64.32623320429366,225.76722277986738
-0.010760260745187211,0.010924119415440858,0.47837280940004706,191.2439727442985,52.56154298114055,67.27974546258189,207.0376464965398
-0.0834732150988633,0.0711113144912231,0.3489957275060421,308.45273906269506,192.60709252513914,-55.96361441614623,286.751072342446
-0.15254817649199565,0.10458457214383993,0.22935145165660792,190.63227384334732,304.67063252733425,-28.525687799651173,271.15668403460717
-0.008735504767099223,0.031247251120144426,0.46093490584639807,197.88273132354766,76.73556601723249,67.15646720232552,208.3056703889625
-0.024352341375279973,0.0389451837580288,0.43872327175919434,227.74044071785193,98.34825066189882,56.20211477848298,220.49092025243993
-0.39509784558742933,0.09481542223062522,0.011058483956068153,-44.79078674627604,299.48802401731814,-60.71210496211262,340.8393674309984
-0.008533719445986465,0.0527081571389752,0.44231322709071885,197.229024881133,91.95506943498131,57.39855612008833,197.74376629069587
-0.338414594859996,0.12811177245127026,0.03536877469602454,-54.78836180581734,340.8807431062477,-84.72328719935226,399.26413472482795
-0.03607323827636072,0.05400765202289032,0.41454756158002504,255.98854128105611,128.14519987717546,36.076320218769794,230.33046991576768
-0.09788338214459569,0.08710747694448362,0.324267930737506,275.95481038689536,237.3122393329927,-85.7815023479119,298.4226880457917
-0.16815487099435494,0.11888039324748073,0.21237611792514413,182.59676348873924,296.8785874442151,-37.8131800601242,267.5049798822273
-0.14028887567714315,0.10269064981051601,0.2554346999495048,197.65264861911675,319.16628727053467,-44.793338949935304,289.60137439264645
-0.012941176440751656,0.07235742998581424,0.4230938440547524,199.5298339373204,99.56442710962808,45.23205674813896,189.72868270895458
-0.05048312441495728,0.06734480832303863,0.39040247016845714,279.16320222094095,152.04340914335395,3.64380537831849,242.1656431413034
-0.30702069469532733,0.14173056362623826,0.061697631928938734,-32.97451561703248,345.33483330131753,-86.15198486790561,392.4247802003153
-0.11632305683343791,0.09902176796899126,0.29671112436586705,233.62726287635266,291.55629341100445,-87.7091999328451,307.4898090038949
-0.4201135039570491,0.07889482542603632,0.009800345140864945,-23.9615066724181,275.8906597234321,-52.87616944847841,302.8006500902803
-0.02584333928618826,0.08565400858974598,0.40321456883084894,213.01238883934153,118.42622364561198,17.351781859343365,187.28600707771025
-0.06406415032015206,0.08678249562661422,0.36698633832696886,274.6508226133525,173.78767839660026,-38.241461030140904,249.58271317969866
-0.2757621745367998,0.14856371773445676,0.09182612756292396,9.731410834212618,336.7400554120835,-78.10985686771043,358.4899701133763
-0.4446975782524733,0.05995871128012087,0.008876652146262463,3.107743458485121,250.07120603849538,-47.55916960955101,261.8276777693295
-0.46763209214812335,0.040671203183080096,0.009402022804125687,22.71315082479196,238.1893513771497,-43.61734701797754,239.89048032347696
-0.24413050214317422,0.1489834454659837,0.12633547333914996,67.13677412159241,321.2332468575841,-66.723855979686,315.4168674340191
-0.48940985266262355,0.020787442099515996,0.010254074928796743,41.4935513826235,229.11992027248655,-42.034255377232554,223.63204010776096
-0.012521101343002217,0.10588054794430912,0.40351027720783184,166.1729425867862,108.89495757675434,19.949224009963373,150.2334107846888
-0.03965622211116254,0.10105743323219074,0.3843940236263826,221.3618947755234,146.12242054780046,-12.020345491871428,196.0621852396403
-0.368061115137933,0.1213801750962395,0.03420626524995266,-50.530908436046076,334.191003079377,-77.86053564982254,386.40750931931757
-0.2132636119329137,0.14568247877692603,0.16731222513841873,128.76247786892068,307.8881505235986,-56.0856796716173,284.8986805244461
-0.13259170288728328,0.11580587559596733,0.2771545562329094,206.1511468976952,316.7097169752874,-66.6830820905839,301.4185945110229
-0.18794973399018527,0.14137425495799766,0.2046104198273327,168.81161990304807,307.0617231274876,-49.581400696154226,279.8635807280369
-0.0131402462216329,0.12980772835983634,0.392229364864216,134.81529403956887,120.05094325030822,8.032387284996371,128.82642199772044
-0.3364999776708251,0.14117789746153042,0.05839455683958356,-42.89422936689511,351.0591752097406,-85.21389698232224,402.3991760819898
-0.06754786607382374,0.1148883999545699,0.35565662940728354,236.69986287125258,200.30952241393123,-62.296954372970134,245.7238794627562
-0.09033164967634194,0.11595075364564705,0.333093163037762,241.16597033757802,241.30907758231362,-85.30762907713468,282.8917338176816
-0.0412598255759683,0.12315511642861576,0.3754833626701292,192.48615648563748,158.39104095275152,-28.229886358611815,184.5029513298245
-0.3034233399917432,0.15365734203828874,0.0861771285355052,-12.746301202730418,350.8373623430533,-81.24059195410531,384.085020596922
-0.3974119482133652,0.11088083587077013,0.0337212725097594,-34.89711495269672,314.13778378964855,-69.83364198914143,354.25001178347077
-0.1511195015014461,0.13212251974583278,0.2575386370422777,199.38473300840548,320.95804795963437,-55.997304568554505,296.95336328183214
-0.16439537687195294,0.13276831732276673,0.23585807312161736,190.83516484825776,319.6995023865453,-47.365705968810126,290.4246116202885
-0.27053795530472224,0.15931361230118696,0.11826844851777964,37.24894237019416,339.2209262899888,-71.86497520891345,345.42209511252986
-0.11174046635241158,0.12765821125806576,0.30968590440366817,215.5652595756402,287.54338047336114,-87.19048426613548,299.9529212704116
-0.4449823380752724,0.07562358175375367,0.02573028050051773,7.508495539744867,268.5998325396574,-51.10459603682317,279.32151028745136
-0.2385541797768011,0.1595664694328771,0.15435923015023056,96.11871859669776,321.4032111924963,-63.351658978313196,306.08212215473554
-0.4215749611096933,0.09467453531517983,0.02919194194601964,-16.505442743977444,292.38125763661424,-60.14799186553418,318.49404129597974
-0.012755652354638491,0.15564124871751972,0.38387087398399616,96.62738624272794,132.25931681456458,-2.7686805344910432,118.6275825515409
-0.46697250243303706,0.06005888414564503,0.028129189162979604,29.828952262326766,258.18382847737985,-45.589972770184175,257.06543804507663
-0.3669518270342569,0.1368658790055885,0.05587508758184576,-42.65283417559026,342.8927112264844,-82.42218015882398,392.9379963477982
-0.21052392137058074,0.15940148079907135,0.19364789871366464,145.6513351343439,314.15946712230107,-56.30852726045613,289.248486779538
-0.48915357827744815,0.042072153319318795,0.030626719328693697,52.1217221844956,250.8494985579551,-41.157841927785796,240.1027713974899
-0.039909504262548745,0.14806556628248807,0.3709004072727145,149.47579069656163,173.05036045776802,-38.93831184221367,175.9862954509251
-0.13234828250163289,0.1415942429965828,0.2894063239413334,200.58753109724177,311.08538123901076,-73.28280707391758,301.1988262046008
-0.3327537861119214,0.15564780923145777,0.0810548498721424,-29.741600099842984,354.3167478151465,-83.44022901725265,397.3030116124856
-0.1825945649959163,0.15624061525090122,0.2312091945766608,178.08180373385133,315.5845935604244,-52.83205632911206,288.93004238021507
-0.06497616158510489,0.14484524133286936,0.354584498138482,183.01693954524288,212.96433229375083,-66.57714943517897,230.58724410052315
-0.01175887596723546,0.18199393639052358,0.37835301280318007,50.22715830152484,144.69298518703806,-9.612189442926018,128.32962432319903
-0.08785458795629186,0.1477366726547048,0.33674461840246184,190.5275380528573,249.68726270682515,-80.47117472613661,265.51648226284357
-0.2983234414061614,0.16670269549459776,0.11047992934070568,7.791407998667339,348.6316408274958,-75.67675004449632,368.8757340374037
-0.265302363533386,0.17167730460956976,0.14402847071901032,60.099035273779435,332.9695624859377,-67.83589993791296,329.05106300259547
-0.4374716342020842,0.0965842261981375,0.041880247718844285,1.9016178031577256,289.4014102804821,-60.67501952344979,307.0029894497217
-0.03738147936640257,0.17243353053170646,0.36925075121548434,109.51555501825457,181.5469271719141,-40.77726147201953,173.3755640939696
-0.3980520751036637,0.1285025408767836,0.05472646830700176,-29.956368277654892,324.79936300688155,-76.54182433805418,365.64705955830823
-0.11069579098198634,0.15671444756504033,0.3181681639957236,186.11216276496623,286.09273192327646,-84.13231743108892,290.6478828544514
-0.15408951714877978,0.1541975621931319,0.2686284443233138,193.60861017405435,320.9682865518671,-62.97367693360749,300.4326263839048
-0.23508314871916924,0.17393808377607933,0.18110088332606616,114.27623048827633,317.2969468798614,-61.390666296215684,297.9653537643291
-0.4633633481419827,0.08237098114940983,0.04607365924984232,30.69008793073879,273.40078695274315,-52.930862884829935,275.1439738552543
-0.025501161716734888,0.1965651143547094,0.3717785690607024,50.48994020915531,167.4868930195968,-27.65279178910447,156.32888684596972
-0.36334965170475564,0.15409881515859336,0.07698070730710779,-36.459432683831295,346.52215453756213,-83.6793421305272,393.76083081230007
-0.2059671033212343,0.1753743106521553,0.22013482733107373,155.68470783415657,311.65153469432926,-59.00854727403955,288.60189736029446
-0.06087725814051681,0.17273591562715485,0.35696029767763365,132.06140671314444,214.03401153164472,-61.60586741575853,215.3392423321872
-0.32749611008288915,0.17112608362445358,0.10343973904737357,-15.977170935285374,350.8999532109344,-78.59407214262359,384.0879068859703
-0.4881360517537656,0.0647232356253159,0.05001755016089441,59.916619410977404,261.32511434690787,-41.43793459643232,247.73858504896882
-0.13471196485938602,0.16855138236436512,0.2994516701523071,179.98225040784692,306.429084212896,-76.79995261150864,298.05250562571064
-0.08501572828924192,0.17644000065539256,0.3425944945189315,147.38652896417474,253.50313542341948,-79.11214978285389,259.61486495925703
-0.2929381447143047,0.18098662360774137,0.13448346102926645,25.88174590647553,339.5533535759912,-70.07559054112538,349.1559483182069
-0.014551961970514171,0.21929345201808859,0.37401229838945926,7.448274680736414,163.11043856812285,-22.302529042818975,164.1274170300979
-0.17624728785938154,0.17279473670021256,0.2555117859449203,177.9614281017223,315.90406699806124,-62.658857204821075,295.0005215087685
-0.4286691098549536,0.11812432247732879,0.057074059189332456,-5.815025567101752,302.1889687520278,-69.64376418947367,328.11581127490075
-0.26120157994147875,0.18657119475421113,0.16926216818231649,76.78074381692923,320.891608975711,-64.46644441665084,310.96009113310765
-0.053141388774521126,0.19847889147112835,0.36193805613719215,82.18186234934643,214.44040308854022,-59.72585845591032,214.04898456219794
-0.3945095271872286,0.1488746337111203,0.07463324222883351,-29.715878773812104,328.52987541003733,-82.14222925102332,372.58489491453867
-0.23134532515430817,0.19076146193329874,0.207072199232217,123.26401260797651,307.518178541888,-62.12543795568321,288.84984407911145
-0.10999644171641926,0.18401553791016761,0.3270016269760064,154.8539616838283,283.33562051135976,-84.18997258504766,285.73945199957467
-0.16014153898680034,0.17913424654600146,0.27914803570990565,178.11662998542567,310.2757820288193,-70.15710679548963,295.7995554960079
-0.35798238627469803,0.17236426011295902,0.09760190263651967,-30.16586557824312,343.0397840612057,-81.32841622429521,385.71660421283366
-0.45911995791197596,0.10495586734461337,0.06220253729863806,27.815524205078102,279.30022605512295,-59.041616163564186,285.43155883774125
-0.012326079171151416,0.24554611597413473,0.3742747365518104,-25.57893448234154,165.69043241995098,-26.529448856567505,185.62656321195715
-0.04526879283476409,0.2213091988457936,0.3669594790212644,46.07007198252791,211.42592537171842,-59.3596526604253,218.29720782184575
-0.3216037254042109,0.1875308484543346,0.1256610558783169,-3.493771653940499,338.58747367985535,-72.59343396316869,362.8306093136209
-0.19961462353394116,0.19359623739422654,0.24680369769154303,156.70973777692745,303.61250782404716,-64.25288494991541,285.5604314459199
-0.08000054296751608,0.20215235505548357,0.3504097655009135,108.7295874830005,250.4217876363706,-79.9700519073181,257.8576445578806
-0.2884190952044589,0.1970879510270313,0.15812655725657915,38.96509163499842,321.58387527496836,-65.68014932919556,324.56982004228223
-0.42549409078002864,0.14003247503789612,0.07464916700867534,-10.569243535152683,305.45984990036766,-76.65649716641768,338.04521003461014
-0.13682999816952135,0.19371695142533596,0.3098769892131831,159.98326065181303,300.3731809937229,-81.02911128957248,295.73833243337685
-0.4869241325632758,0.08822353316830606,0.06764705072372505,61.00617362207409,261.08707702463136,-44.85468181860017,248.99019840341413
-0.25809314206508027,0.20414315900874158,0.19389853409823785,85.12254599582369,301.4925300884679,-63.20156543946255,290.6253522975929
-0.03994865249546231,0.2427697967637169,0.3711418955935922,20.663036813659346,208.3819266303308,-59.64935369254094,224.09444705989696
-0.3898411303023977,0.1703033886376727,0.09361978361390941,-31.607134126271678,325.88864901031695,-82.58893231416991,371.43724092143464
-0.10699287902572802,0.2087099010801719,0.3376706170858064,127.00295895813336,278.252578401896,-88.56047611475233,285.9094646311462
-0.026537443781845416,0.26327728443347953,0.37532397528708505,-15.026110672342142,185.80208394319504,-48.62026568804175,211.26256597604115
-0.07364512437401927,0.2254993154013753,0.3587414789147582,77.5100005070867,245.5447193961404,-82.16609196755446,259.84926031199797
-0.2280802865852683,0.20988576327886527,0.23182522540182904,124.36313804969281,289.0595078412169,-66.48192408465988,276.28387645813757
-0.3512335529850109,0.19125333719378973,0.11797717657976772,-23.542549911092166,332.0348492151418,-75.63125895405223,368.481480881241
-0.16646230282478064,0.2030348910561957,0.2891541755811265,160.14755507402685,301.511501457952,-74.74065471882865,291.5966246818105
-0.4566353690653797,0.12756279488461514,0.07752289683674435,20.87476054085344,275.7693540506839,-65.87888822176899,289.39239238595155
-0.31647894279515854,0.20527627025161205,0.14762793749342937,6.30937522247461,318.74198642784927,-66.1983519263537,335.8152240882404
-0.28548712251096775,0.2155744268804069,0.1811682435337764,46.27621298110112,295.79958860035885,-62.393070883014424,296.0221032707863
-0.06624435705096826,0.24783223615918676,0.3670374789570006,44.98695851743405,237.56538082589609,-81.8508481574655,260.5234667040549
-0.42249716783853336,0.16263412041144554,0.09101927734447472,-18.931186895132768,299.53105260165796,-80.83851333660888,339.6355625711665
-0.015390473444647279,0.28412611793993603,0.37899658842029854,-36.91504302977567,175.57000270794376,-45.83305162609621,212.06302440911367
-0.19614192343291542,0.2149309011913173,0.27019201303879586,147.7405219518992,289.8207335811201,-72.9328595273899,281.0029519148992
-0.13524000846383794,0.2169271163592733,0.32332529498464657,138.4900789076314,292.0400279788776,-88.96986945763885,296.2585802853512
-0.4861324574657538,0.11262962970474194,0.08339977377740866,57.20733488543127,251.3383170768089,-50.38249643627188,244.29576615773664
-0.2564587683550043,0.2244247073899926,0.21763116115837144,85.75959293831859,274.87467687005153,-64.32493801017822,267.86330155132055
-0.38179126631406307,0.19259221388399528,0.11234263797814233,-32.46216435571343,315.70505074515694,-79.1757757691579,360.2476243250211
-0.10170646145721673,0.23160339102509525,0.3493730939184475,98.51077208961652,271.46480181079244,-94.22300703305761,288.59873315970077
-0.056026434708117356,0.26976281831996324,0.37520020869857,14.981680981949378,230.73645466262565,-84.63274719222653,267.38557929060295
-0.34504681566835105,0.2112336346498272,0.1382678363236054,-18.48797794484457,310.8302894599132,-67.62119836954993,341.2063556224431
-0.3134375893997124,0.22489588281714856,0.16877978016505105,11.590587454824757,289.22438147564105,-60.55234527691831,302.37817981058
-0.4556932886846855,0.15037585392166153,0.09144316210008831,10.951224540990413,266.51743583143997,-73.879334575701,290.8732522410387
-0.2267660768539771,0.23126345657469272,0.25472927122487465,117.84762209666489,264.9101653903859,-72.7283129632114,262.1347882672829
-0.1647059277672943,0.22614836173168507,0.30725951303052734,142.18434835746095,288.7714535167924,-86.71270142547613,291.7256212728429
-0.09463438830710735,0.25344840926202006,0.3613304344952577,71.11483940965627,267.11597284303883,-101.92822330200917,297.62466620925454
-0.013582508000635263,0.31158152455171306,0.38469888866828833,-41.49501745931293,169.78044749698043,-55.467719575075314,216.38457247211124
-0.4274940697396537,0.181516074520437,0.10338532520621756,-22.368119860307633,279.1468100343061,-81.43319775902742,323.3594914884463
-0.2845792902046832,0.23673826027897155,0.2034400310765989,47.24374675039379,261.65928095197705,-60.36386946556284,263.18658081616206
-0.1306382674157831,0.2389601512838498,0.3384579818656672,115.65511854469152,284.4995582319714,-100.01331122470712,302.3578380213301
-0.04714258416507361,0.29147746181734163,0.382870568695716,0.23467992028593443,220.60344471580845,-88.06237261609499,268.10279392175846
-0.40664949199070455,0.1982670464930381,0.11285373939612504,-32.95995301422659,290.5127945299521,-78.56921974349223,337.01438725868155
-0.37327998150616915,0.2160562669654404,0.1312447623222587,-32.766199021200435,297.27376978629263,-70.11830766707189,337.54345011588254
-0.19468755550760047,0.23771149340617082,0.2913438883898585,132.8046407719744,271.02964763480287,-83.99579170359442,276.1630434845775
-0.48582358808679565,0.1380699690794499,0.09694374821930508,46.74711497457323,230.7112499121218,-59.649007303669116,235.16356113528633
-0.3417611609408882,0.23253166877914233,0.1574025212317324,-14.456810733125849,281.55294663273844,-59.0557199269068,306.6172744044768
-0.08588102780329393,0.274802968083407,0.37318703005786646,48.21216247492817,259.6839287606446,-109.54847726777058,305.3569031749541
-0.25693745813217855,0.24749854654346443,0.2405614908439083,80.7306310925913,240.1426253808035,-68.27982743076458,242.45711811389245
-0.45732948710697074,0.17312187815380553,0.103464831564227,1.3925214137584199,247.77183260611093,-78.92131100382446,282.37123181715134
-0.16038423888394004,0.24767852688031033,0.32603831224582747,123.74270981518953,279.20590882665726,-100.62497163582351,298.4872807200223
-0.12422535262154866,0.26011167729180473,0.35397981865596845,93.3353597663873,278.9570958996967,-112.9548211474124,314.27434621944644
-0.31273955137486353,0.246625522866238,0.18880454414620448,14.09781302522331,251.92846365967085,-54.94282013403715,263.00418097523453
-0.4322183238012238,0.2023466247973123,0.11433746179526288,-26.95269014575329,252.9610677952348,-80.5944839602627,301.6954476618521
-0.2260729811543596,0.2533915595396641,0.2769587403845388,108.32549088106225,242.1228116861999,-82.06838683261587,253.64434911104792
-0.04196925508981558,0.3149237579847812,0.3913614572328089,-7.972772499369086,209.6746194132651,-90.03647850506434,264.60990448521903
-0.40055466347866897,0.2215427245827803,0.12730717605757166,-37.20440806492512,275.35991887631735,-73.34637771316034,321.8554474613681
-0.012155183403206427,0.33913926311773746,0.3929406507287904,-33.52221341312115,162.7076518034245,-64.65110586373248,213.5208089236553
-0.370094354885659,0.2394982355488277,0.14798264277808398,-30.998630479640116,270.0912117993883,-59.739736984839865,304.94121397131005
-0.07729954722316279,0.29649147962632316,0.3849137336089808,31.602676231661185,252.19304441158323,-115.2334909494812,310.590337862243
-0.4861256520616063,0.1645622687620349,0.10804339526044753,28.754167258403044,203.42818806539555,-70.53965055127449,226.46842735638816
-0.19061607220259968,0.2585151015473184,0.31293428204541124,119.3440203464759,257.1481043120468,-99.27196878081021,281.5027984008671
-0.2857989409273163,0.26071257323870933,0.22522366997157903,46.42864000455433,220.24237060895985,-59.93447727999745,226.3033172223807
-0.11615658825860986,0.2804285552943913,0.36936142043032594,72.75971487026314,276.8071880324169,-124.42166707302852,328.9651001106842
-0.34114662637139337,0.25525005730369715,0.17487236727226582,-11.542383718314749,244.60504072011878,-49.75321441849495,264.9798574268157
-0.15436024027186762,0.2683670901045861,0.345316115736162,104.78938946276419,274.22160007116673,-116.30490313288165,313.08669648973734
-0.45879587034577274,0.19809882739056872,0.11389671938086884,-12.0717640407617,219.13268459314475,-83.40002429751985,267.72536518709296
-0.42895449112701545,0.22533651450320946,0.1244654121907404,-34.0470902163356,239.5964624612448,-77.60170813332044,291.18603480370075
-0.0369973079730499,0.33947494416059054,0.4012560523650207,-7.999314618997843,197.4237583163375,-93.44430875052775,258.4857842353243
-0.398308091882054,0.24625072037415846,0.1405563576371489,-38.36099354966184,250.4782463188311,-63.50200133689116,293.1160599793418
-0.25896224367519394,0.27301205817140267,0.2640511829008165,73.537685952001,199.3003071025761,-74.39278262836939,216.96815110537568
-0.010802239809496406,0.366393384064085,0.4039428767533085,-19.51332900770223,150.7023852344621,-71.0405421562568,202.91121220674157
-0.22170084751673286,0.2727852470807418,0.3002440601431377,100.22249860395863,226.38272240888108,-94.9642921419435,256.241476925875
-0.07102061397917048,0.32009304089811175,0.3978632288277388,21.32397757373849,244.2687180644518,-119.76031786492683,312.9548516699632
-0.3140016483619943,0.27032819559440296,0.20778883195213943,15.76661159678973,207.374765681728,-49.319624956477355,217.44093063372245
-0.36952720520222965,0.2641451857468027,0.16289158842787033,-27.955788682130056,236.5513461246204,-47.34238570996921,264.7167342142874
-0.10638424898372795,0.30055025609691444,0.3845729835439709,55.35019636680529,271.98028683877544,-132.2585831411671,338.3190163526834
-0.18429788348782833,0.27818961380734164,0.33555902906940704,103.68192252102514,253.55686646930872,-117.18004559200025,299.90873855604093
-0.4863687609746879,0.19256727582205657,0.11657596551980696,9.605029525816775,174.9425613636348,-80.43729294984512,220.06204168992622
-0.1475671424742792,0.28881586932785874,0.36501179395598526,86.70654482340647,275.30181603324775,-132.95877226706145,335.3695736688981
-0.45756170318782213,0.22457832561901597,0.1221806132416624,-22.667494324364753,196.07535643686572,-83.39620517467351,253.51267984575887
-0.4269738119751669,0.2511265786208551,0.1340778743264088,-36.6128774397406,217.9443651352165,-70.868984495233,268.11762028659086
-0.0324567454671047,0.3658975840440542,0.4140810965613336,-1.1258418829585644,185.60260593777377,-92.0742989735547,245.13584730227353
-0.061430695161862725,0.34182903144210075,0.4090082976194636,14.367959170308993,231.5187419337982,-118.0170136374171,303.7514786955696
-0.39745737239208084,0.27283491361561824,0.1525079636644091,-34.895342213773624,221.24504898919537,-51.136703179707965,256.38323959318706
-0.3420555263797298,0.27899686908598753,0.1908068923872106,-6.954710145100293,203.88307247578814,-38.89435423057327,218.11220800535526
-0.009109423194490374,0.3917374365549666,0.4166441929640076,-4.999163379544941,142.70233473504447,-72.49583167748648,192.0137419330773
-0.2895109860750521,0.2878140324873125,0.24713139002642007,45.28567266880467,169.99274969853332,-59.78955097189822,184.3216273161675
-0.13506367557282206,0.30552811565852,0.382780563756062,70.42233316017378,277.5608270316643,-145.13930020849895,354.4701483507815
-0.21415144765515753,0.29035097409853255,0.32541974511924154,91.6456417057276,217.93215774229162,-111.16487334026016,270.1734697773409
-0.09863413748017502,0.3230024140385967,0.4012446143243904,40.49102644227938,266.10266525989925,-139.0892731384161,345.9954614325028
-0.2538134602770655,0.2924150961705696,0.2898197199916337,72.72335384203708,180.12707160351607,-87.89024226291289,218.65289252337928
-0.17823356396805834,0.2978732172290345,0.358701061505341,86.54681724499652,256.0627791457441,-134.8044571673818,324.6749218921686
-0.48599343277765616,0.22150747860738812,0.12233665110644304,-4.575669313837604,146.10047779796741,-86.61277975837434,211.0452906081515
-0.05251117038378622,0.366008730716488,0.4225347996452525,12.48044936882631,209.70178342699373,-107.93371233570066,276.5185090983853
-0.45593879784699926,0.2521132536901302,0.12862677777482748,-26.26812353067195,173.22770132772501,-79.67204982421521,233.00455799854615
-0.36985780612461105,0.29022490845629634,0.17648205181219195,-21.04193678686525,200.82965014611685,-33.20639794880757,219.7934277430986
-0.42593969862152214,0.27975028612231223,0.14245536108349063,-32.84238502806695,191.40469085177858,-59.79684385622514,233.93920597673718
-0.3182547070005043,0.29617511449369327,0.22488094715298387,18.506214874822803,161.39200838634267,-39.172299195594114,167.35146323382114
-0.12495591259431399,0.32345735692648636,0.4007833019847032,51.796462717250805,280.3684560634489,-151.21057874256908,367.91462025152805
-0.027825536651741145,0.3931580142943419,0.42939191385644926,11.118334891459746,171.0777363665388,-82.88688843751052,219.316708233136
-0.0749086713199777,0.35635391947425643,0.4230757572513775,27.64236986044928,239.70534835340968,-125.55769699317963,314.46929351959295
-0.1509950879450077,0.3193941792276893,0.39233802284595926,64.7981266686618,278.8968740262437,-152.74263152167958,365.92513311227316
-0.011850629575871685,0.41491987843489786,0.4338884132578175,11.965667884953879,151.09653842175373,-70.58673690684043,190.0337665129941
-0.2089373411495799,0.3083236080244515,0.3505604884477975,79.46173239278234,219.94315614813087,-133.45440392603425,301.06864402915795
-0.3959011772400963,0.30131092207948473,0.16391410511368315,-26.116530303002065,191.50008489009434,-36.29058942109704,215.18990236447553
-0.34383428501702945,0.30259946287972506,0.20499206950039092,-0.6654120234115055,166.8089277774497,-27.74701327535928,173.91477241076365
-0.4854377846787766,0.2508243399095399,0.12545056127119852,-11.090030943873629,118.49131452010415,-86.62960972904888,194.91362341578
-0.24174168900282478,0.3054618505493598,0.3175856091201478,76.25270614954502,183.12814000958824,-104.20258915566879,240.75072870268048
-0.09821029117153912,0.34604298163889463,0.4200433216255298,36.63201770180822,265.88252933185254,-140.55464450129168,348.65804863272047
-0.45507600007390914,0.2812359266561811,0.1331290047428382,-25.07607590222429,148.57098926609655,-71.00584077444277,203.84605492901363
-0.1760237081058395,0.31747220219561534,0.3816881203763932,70.07253189982299,263.3048863898412,-150.78662997924346,352.134926149309
-0.04774753643668478,0.3928269485377567,0.44023148313082694,24.733979779644486,201.21234025222853,-97.456351884248,254.19405035929535
-0.42234992479362427,0.3100670005070772,0.15056603572714564,-24.336486452777386,166.48880236321565,-46.20206764393503,196.8919285602634
-0.12559307743165982,0.3419911439582124,0.418805069361014,45.68609234937116,283.4381128335884,-153.59480809995006,374.4987293280925
-0.3687300101304662,0.3171326160588218,0.1904016500195053,-7.592071641574805,164.86692188670656,-14.785618785444957,170.7227768492052
-0.3010940980105904,0.3176436180981576,0.26305781565165925,42.55687432335249,124.09113600660378,-52.980650680412694,142.65207586105336
-0.07434587874087706,0.3800016887858709,0.4427412249177032,32.221197475165134,240.67451742169624,-117.65735341886636,304.52810410602746
-0.485488772551678,0.2799477654623195,0.12582204881697295,-8.21708153448182,91.5480556227737,-83.11683261440714,172.99146899828477
-0.32839821321184165,0.32459718267181237,0.23654328702142707,27.72616266019449,121.2716117251276,-24.25962271812982,117.80804453343936
-0.27971028802285447,0.31890616822053697,0.29154048420394796,53.59157222987595,132.16990113533006,-77.35726004404475,176.66404167642384
-0.35406852060761745,0.3296820682936193,0.21133160005569776,9.09814339905553,137.68718966020145,-5.804550349073271,133.74946365633537
-0.46110148677241575,0.3079015931627767,0.13199166126092304,-11.93555943011188,110.28043188631808,-65.2292361327682,162.43475497593926
-0.1525180444307594,0.3383743561720868,0.41355260902301055,51.48177676359782,284.61981406353175,-160.62150904085001,382.6276070356927
-0.39163789880797106,0.33216989300107386,0.17697715683038512,-12.509711980008646,164.06741234219695,-15.25187146155774,172.69888103121306
-0.20429575220446056,0.3245047369745486,0.3750815905533024,60.64179537238908,237.15743470780814,-146.65257621000882,331.7534594901471
-0.44458324778295855,0.32400440549795617,0.13925643930357953,-12.885544673764045,126.0006618030077,-50.9414398459683,159.5333259029699
-0.01591264339560794,0.435388772762534,0.453354510875528,27.82021449089096,164.07069065281954,-64.32217210172456,188.52241121849133
-0.10042634209968704,0.36837035985143696,0.44177534286204334,37.703877435666854,269.8508693473115,-135.82656215057574,345.56217228501305
-0.2400237422296037,0.323297579826781,0.343173319390472,67.5512531066822,175.35075011418337,-120.53834708604697,258.94859299326
-0.41711895171762636,0.3418647914531716,0.15814778626011808,-13.892314298094021,148.8295310158712,-29.188798292272885,164.21562093148322
-0.48707938502802456,0.3087211200070184,0.12286592092988954,4.119135139630046,61.72435334582034,-74.00689113773558,141.43433785696612
-0.17732732394382522,0.33732661697512545,0.4070919229907149,50.2899121313375,274.99167262660745,-161.97513959794446,378.1904622888262
-0.04522471975561326,0.4182298148590455,0.460892683694378,37.122616778544916,206.03093040428348,-84.62304546434348,240.12830977791262
-0.2639212278171197,0.32764713285988323,0.32305428185393414,56.865556292600445,148.6293775536803,-102.96462522194157,220.63008242244086
-0.46660099024909163,0.3364150977394644,0.12743245895361935,5.540618454086186,71.3773969058885,-55.245126272907775,117.83899291041857
-0.12713729132543922,0.36062517078552975,0.44013374787430226,39.96938988240276,288.923081083169,-151.05533799657798,376.801227503449
-0.44090028902111356,0.35396086628271595,0.1405463510816987,-1.2062062172536088,108.13573346785088,-40.57102904895219,129.4729739148584
-0.22477331237292575,0.3362831403588202,0.37898704831633456,42.11922765750041,212.71228392374445,-139.91159557217148,311.1061421525483
-0.0736535289597739,0.40200104326847524,0.4641061128844517,41.50858189362806,244.090089836669,-104.54098615642042,289.7542997153889
-0.3652220055102936,0.35806076235943773,0.21399442366379293,22.14710294727439,120.53779836094124,11.61473167133861,112.93802702683503
-0.3895849254154524,0.3634784325043239,0.18685760185627673,1.4706473170282806,144.76009215094848,2.749778970749876,144.1091249543607
-0.4884839747030569,0.3387813814184738,0.11655103425033438,23.0324305916226,31.566956203613344,-58.90284574916662,105.87038097230307
-0.3409228762333536,0.35425969333044116,0.24411066182725136,43.893668337324016,89.04397253295656,-5.616694515857965,77.72810520404408
-0.15405151520760713,0.35577559981794293,0.43698950548982496,38.32867588975993,293.6798752386872,-160.34247760864324,391.9052514822162
-0.012353076631736737,0.4587733894797612,0.47139031034649176,38.99078027552386,189.14361342009795,-54.60399593013386,197.14339828494943
-0.24328177816456725,0.33765369653375155,0.36238800579959934,46.10106664741774,185.69898077156088,-129.4474073415505,279.85423441332244
-0.4645050558761231,0.36443868726136364,0.1230988316085618,19.358307249409293,53.68873467934452,-44.91134114310732,90.93397032514586
-0.20057014110698113,0.34074092313076354,0.4031187670440196,43.57669584863078,255.48980052634073,-156.1844676734762,359.47368344769154
-0.4138982948451139,0.37255391912793345,0.16263727469882308,-4.726909861154994,137.4638556929337,-18.832825511944904,143.64003795641585
-0.3184958047692302,0.34959233241716803,0.2733066961080077,48.9584111127683,81.28498264172825,-37.15109153744574,95.73505957357496
-0.10122303931411958,0.38809671511221744,0.46432854843030047,40.41289391642013,275.0202616704236,-124.14978892270236,335.2528775907372
-0.438055768672893,0.38512118238584625,0.13831936586248286,11.421185108377685,88.62766133479981,-34.16793962295195,102.34948554517267
-0.29937623185978024,0.3487230972975165,0.30293796397584166,44.89549121864245,93.6978365080357,-67.74926747050156,142.68205574025825
-0.4880200474893771,0.3680206518345826,0.1076227148052922,42.813155008345106,8.898036661457965,-42.490413781665026,83.35162905037686
-0.1287545453743471,0.37773877016715085,0.4634103739456993,36.88247957742222,295.9698236585565,-142.44168127796587,372.70799633965044
-0.18004745943741457,0.354103891761375,0.43328545827093407,32.977644887742436,285.3235180759591,-162.36928239449531,390.10138293559527
-0.4619593920237383,0.39505497606190104,0.11516465036553725,37.511201997119,31.660938949525374,-33.23927940525623,67.35291040647175
-0.24252972856753813,0.3492003340601068,0.38696259600659233,23.20768419068742,201.92539686111365,-138.80229962535316,307.28565994273134
-0.22108911253211727,0.34738253047748924,0.402838924090322,35.02046360355703,240.19456226937092,-148.4405387767369,341.48486986400985
-0.3899033858253615,0.39659061651726446,0.19243776323925893,7.158302030338348,138.31546303281954,13.600647477449975,136.9205520639739
-0.4096142162887026,0.4030657716774203,0.1661656870798043,1.21810585819793,128.18864813094027,-15.467472299037837,130.3663838811276
-0.05028421118412335,0.43899678376873014,0.48587219906929,52.07768627076703,228.9533561343647,-72.2057727410099,242.58892079499452
-0.4868192982382061,0.3966614351380104,0.09562905621517606,64.45538507953472,-7.632277437554137,-23.035324057458123,79.35091788506689
-0.029724941448396713,0.4592611332635984,0.48827255762015587,53.70141690189031,210.2770064837635,-56.01489756940869,212.65252101047687
-0.4299366660968605,0.4105268172462396,0.14065849240221034,16.43254350036443,84.91945229156384,-32.59612264720653,96.29860281685036
-0.37034046523234704,0.3901156393255606,0.22120933550582347,35.70563389582824,107.55357039762518,33.407290144026575,111.13296312379404
-0.009418531389939977,0.4813368268793196,0.49072868024133515,46.76406637262579,209.27845443098232,-46.798551678288874,206.80413723354164
-0.07661743441063606,0.42086916147165426,0.4875205924072824,51.09632113160157,256.9023052100317,-88.69340911844277,281.2159814663917
-0.28281533018203553,0.35175960534029505,0.3350193261511269,34.853634030236236,120.73130584859994,-94.32295723038496,195.63578417313457
-0.15646515904700836,0.37082459704518095,0.4616860045903666,29.97453468942672,302.54073007659053,-154.4142675294404,393.5633958162771
-0.45897947090705105,0.426345815144492,0.10260110100428528,53.0009920610933,9.607576610057862,-20.183117603830183,60.11883485873876
-0.48954585183812654,0.4206573486523328,0.07918384652104897,86.98355081460525,-19.82846302712045,-0.6537768068154044,98.4141171375801
-0.4403934067752416,0.4311442079050203,0.11972493838287789,37.933518977094366,40.05734616369031,-28.996710702384384,63.61174763724251
-0.35132200577215905,0.38499355143971575,0.25195796781230256,61.773536287918304,66.3719696446752,15.162981572045638,69.36083113072591
-0.20526245375109115,0.35597736927502033,0.4307261684648402,21.079874355925526,267.8709275651431,-157.81170484903774,375.85384393786995
-0.4760254859468661,0.43600775678789827,0.08004683056573944,80.42221426030073,-14.857281667393721,-0.9189607514452653,88.80236664212761
-0.10329600829937918,0.40517243523149515,0.4878799933974828,44.807664259555445,286.4563477359659,-109.43313591226897,327.3474603338682
-0.2591744151487555,0.3537167917411206,0.37761187983995287,20.478401077718154,175.45768514401882,-119.71524808928845,265.7195762707181
-0.4922073798947125,0.44463372547355046,0.05907031930165845,111.56304712332783,-22.633885783159002,20.00674260449631,129.16857506462338
-0.42210571683508546,0.43613072830684924,0.1401002559424524,25.096627000291733,74.79570880518462,-39.93437182945391,95.55825918043314
-0.49068049228690813,0.4666520010546302,0.041451120135634976,123.18025641010829,-11.426973673150684,36.271408488177435,143.73021277652742
-0.47233414799707213,0.46252589903869334,0.06320759853251068,94.13039480545518,-19.061325238210344,18.142052372604184,109.56969293160661
-0.48967638463231866,0.48904767389244846,0.02119853353632809,139.1787134494816,8.405034676994745,50.85596023750966,161.3398371375448
-0.40447898326066367,0.43605763170455547,0.16685002973839735,3.9293341219309355,119.75273718573486,-29.772732516136706,128.62680909565933
-0.4552101979157107,0.45888031069173635,0.08444589935394113,69.12660230667939,-11.58437605561258,-0.39862830353503753,75.59067525299764
-0.46952447401949293,0.48796265045761456,0.043002762956079375,103.95685550017393,-16.365852216959524,38.94235978739791,131.62725255721364
-0.45056015478787126,0.4869856270679344,0.06508856913772879,80.19122415366294,-23.891537797851868,17.355949113821282,99.10104228239534
-0.3336620749467839,0.38036861901320246,0.2828986498735338,60.39240491919581,53.97861804134365,-23.707184619074326,70.6195937933274
-0.4379665980463908,0.4596489921313541,0.1045346045824246,51.19937376460531,6.842234598641852,-19.817231631162745,59.12733657251187
-0.2426004201116349,0.358420697653684,0.4110715526706218,7.814540423071914,217.26912361135857,-134.26756945091813,315.6777175958047
-0.3886087064981265,0.43125616470699685,0.19585394112272497,0.2445588866089281,144.78730768522416,3.6739075185048193,144.80506911840402
-0.4326950918946411,0.48699938743151555,0.08773771450133112,63.235151773411104,-16.65256719763613,-4.554043880596939,73.42505005266786
-0.42048690392032806,0.46120499569121626,0.1277393452256985,38.17176500826108,40.31675091444214,-40.13046267232441,79.84312499661361
-0.1842258448098255,0.3673155450895984,0.4596557033678488,18.207730606588257,295.39894996550436,-157.7822805784411,396.10511330419024
-0.13076212423853983,0.3925684618972608,0.48769189858036854,36.86454232661218,304.0829592197347,-129.95567642498509,365.07669735693935
-0.31777989926710715,0.37707121229106455,0.31373887654714805,41.311397255485126,69.83980543638485,-56.28794353057181,114.90886728476107
-0.22973132547013037,0.3603061497667751,0.4277230645646036,5.589475149882649,241.83216901851458,-142.72915991393546,343.9144727613141
-0.41636945977518813,0.48735178662454487,0.11200589885171264,53.443088763868666,2.342235644765168,-30.74148907918226,74.64309043297791
-0.4045314376900886,0.4631977196401792,0.15395306815188947,27.583348676430433,77.4014847367267,-57.27153041818502,120.23694694814904
-0.3734977112757828,0.4217734815516242,0.2282214815073004,39.86767474967343,108.07131922631037,48.77282059466746,126.87258731048647
-0.27587943121389435,0.3605591871137904,0.36769052465202334,16.112137564848656,149.14696469275944,-106.40229029137635,232.52028681216922
-0.40279743084007097,0.48842723985690173,0.13640382983228808,52.2003163850229,23.92622826397715,-52.415092121136695,101.44164031874821
-0.15906222538189446,0.3832235132082218,0.48718004161611805,26.224980575665803,310.70536213218065,-143.86248994937154,388.8014629865878
-0.21231278594083286,0.36709691464002436,0.45764417756713366,1.956481880624974,276.7560114829048,-148.91541234196507,377.6025022300396
-0.39234650106316993,0.4831422440363153,0.1648088075046985,40.01658731420753,73.01831514948549,-69.87769915061627,136.60064545814407
-0.30468073566310333,0.3764054457506224,0.3455690002295002,12.710397125474884,96.7234198009487,-76.414120739748,160.6391440507578
-0.3598051842646437,0.41644718163517275,0.26035123434885726,80.63464985958078,49.25734040113731,30.34177965488378,87.85359823585698
-0.2632340342170321,0.3677708021433179,0.413557029232305,-10.618832874786092,190.16880975809258,-117.72556377828816,282.6202960263077
-0.3837080056015146,0.4590451442490274,0.20658335960921753,-4.331998440537959,150.62101632273328,-7.327192913159209,153.3590885613376
-0.18804450346433627,0.37713967286831585,0.48651808895142246,11.18552209908318,302.80276782341946,-147.664844310635,392.2274133597148
-0.3850627169269641,0.4827246212983719,0.18950133457020757,49.51620454306428,89.88144924274306,-82.75759068078985,163.1759714261359
-0.3475102396796024,0.4111977476537713,0.2920882673806575,68.5352565720971,38.48087897064909,-13.273313638888538,63.78953747482877
-0.24129124666331359,0.3696827269900619,0.4532567615879309,-17.179762314870594,243.5217896957537,-128.38439566620778,336.495634306027
-0.3745869686859008,0.45227007841366507,0.23752749043066437,38.56332488278363,111.77675967402597,57.80547205873869,140.33926154639207
-0.2839112871853462,0.3759664111027551,0.404129445290996,-18.613262317483045,166.28391335626213,-94.25364095489111,240.29799411025186
-0.2968840817521531,0.37892498118420354,0.3794061027304436,-10.33996721721163,129.4172108669769,-81.99938661931495,195.8713795483652
-0.3355115532382309,0.4047216185300268,0.3229927478241084,33.06527328980026,56.57335306764031,-40.37198828250254,85.51570328653531
-0.21765473990135842,0.37419256800374756,0.48569083963206205,-8.098377415514967,279.84468589419555,-137.15201594863524,370.2390393521551
-0.37821862652708504,0.48650775870860163,0.21851569938245197,21.063178807039407,134.05950722612636,-63.4160674497994,166.30298385799986
-0.3670972348272362,0.44870115923110937,0.2692723456055107,97.03415349403896,30.97661943501373,33.341577181306036,103.46192612625087
-0.3238776768469056,0.3985485597747559,0.3546577764686291,-2.2675938271904315,85.48011197991968,-53.124769004766726,126.38255000421302
-0.2695555779116923,0.3754581962303727,0.4474345821664037,-37.09804878764662,205.70033612008558,-100.2386615468117,285.4178382912915
-0.37499700427641264,0.4840092164871981,0.24687894589965848,38.26666486543655,109.6665829395374,64.5359086679057,147.6115618779572
-0.24762911376502517,0.37429210943422847,0.4842931088309041,-30.069298487865282,246.92272423892058,-113.13352167601127,328.17277269168574
-0.360807462809544,0.44331466525865737,0.3004167105316969,69.30621037922046,27.1618012079916,-9.431160020080299,62.653595835870995
-0.31566243444369846,0.39532102604320946,0.3906377024438367,-33.34753633223705,112.6063801466353,-54.53748037873238,162.69729770503838
-0.295197039260526,0.3844269534050968,0.4360782509953725,-48.8645379563448,165.79132945701048,-70.41989758178627,229.8971740369655
-0.3529648967403296,0.4331102298777796,0.3315872257289076,22.868594376173796,48.46534589560129,-19.62848049413806,54.03109997456144
-0.37369973227143216,0.48259226755259804,0.2772526451517719,113.02839872835062,10.559917963320032,-10.469065253433435,109.6456298729329
-0.2774748160748485,0.37757974346365614,0.4821493378712789,-54.05782392894502,204.36926944446938,-77.06108898534333,271.204791462349
-0.3416310026561977,0.419058481319732,0.3605729915594707,-15.483123916594336,69.85669920388645,-27.36886424145392,91.91544848206051
-0.33571844063312983,0.4122077243111057,0.3897519894086084,-39.67152287880654,87.27092528078805,-27.105427936687533,121.88653455863303
-0.3181260558124388,0.3963344882742064,0.4263452451175688,-52.49863894747371,127.25648353009842,-37.20280627930485,172.57826705446325
-0.3743511593609635,0.47985734623777676,0.3079101601942678,63.916716342407156,18.316139227830178,-13.860672107289009,61.85850630667603
-0.31329257846988573,0.38953894262775995,0.46449780421889086,-68.84159941798565,147.56749297575905,-36.662238551690066,201.7584502294608
-0.3441430292889971,0.4169956778285749,0.4104831125452164,-52.52205701660793,81.6987823527499,-5.436910159162423,117.52840334290599
-0.35357825446557145,0.43102265001984486,0.37782443882813865,-28.129886066724442,56.941006353809485,-2.8357807539686135,75.2292341674598
-0.3660703096216362,0.45332273063297823,0.34418917080097766,9.362538961977936,35.53443044471871,0.06359913594187105,31.900980045525408
-0.30513589844012273,0.38262022665854806,0.4853846113870925,-73.95946840677992,165.5667031741678,-38.48766705480325,222.6464979863038
-0.3380848788826182,0.40858956666400326,0.4284091762431296,-62.257784497014164,95.56180982843517,-6.810276664878359,138.19080069006978
-0.3756707078543375,0.4758749735205539,0.3307958789960155,36.132925042027054,14.14063355615312,-3.146303034209629,32.00470286504979
-0.33779302894042285,0.4009491578845628,0.45962193776606813,-72.99787857270296,110.57211383305264,-3.5836288280489725,160.2028075892198
-0.36770653092244704,0.44864507799903686,0.3726100672144344,-15.234473541756572,36.43323787180012,15.183202737742366,52.97263577020003
-0.36173374277208264,0.43386411336736386,0.4035868574451591,-41.015190867192906,48.55713032845978,18.084753242968368,83.7424364081282
-0.3781385023999518,0.47132184401512445,0.3537415603338828,7.997674956097366,15.190274854916595,8.470807536141725,19.710000381302958
-0.3567309158105746,0.4221084800935885,0.4292877406581406,-62.19328958110088,63.290113550840545,17.657577390535717,112.89479270450616
-0.33408284038365327,0.3906429125248179,0.4887101208043648,-87.14465897121035,120.53075249050625,-1.1167836388426835,180.63556355699373
-0.35280483455199074,0.41124754303299693,0.45299606803113934,-72.03763813407446,81.19684112508145,12.918485232121483,134.6560015643705
-0.3862140269787868,0.4907383310223098,0.3463143692148554,27.524316126481132,1.7156724561836825,8.264976987981026,30.302447640239368
-0.3832888982687653,0.4696222297967207,0.3754577376949408,-1.55811837849466,5.675618826351638,25.280151978240298,44.280265582705
-0.37765697670918363,0.4511821775375964,0.400705193030936,-29.175012999698783,23.29318817835886,30.93767275863857,70.31892955751603
-0.37341112203774396,0.4364683282990245,0.426686598260668,-49.505972092611145,38.7389952462936,32.486707603972675,95.05535837565185
-0.3650044149080407,0.4225314626409671,0.4453993986993869,-62.98799139944145,63.306083181400524,29.626665850808415,120.81344395213335
-0.3598507596845868,0.40177529221192354,0.4866793187671178,-87.30732963259727,85.0875524560916,23.96041121152709,154.96300299340632
-0.39509353247130247,0.4903487633791053,0.3718378810861018,14.1102705119323,-18.812626697415027,23.831290715777712,50.22207841633462
-0.39333938422353754,0.4701454507671173,0.3998819932345369,-10.77294622842577,-7.404767213937674,38.61561635909405,67.56192174058991
-0.3765809017985825,0.4235463002865794,0.46213067919708134,-61.56817911448845,51.30603662745273,36.15568989116269,116.20443649509488
-0.390301477214662,0.4524591743916574,0.42589336543746686,-33.3392015076008,10.091258966567523,42.53064474979296,83.52447311624177
-0.38363794818014246,0.43518649859841096,0.44783884052610673,-54.72288393160421,32.23526960849222,35.60619927345168,97.98529394718244
-0.38704661417193603,0.41460122859488246,0.4893472043205261,-73.5024677380328,45.26647118356246,43.838205399229956,128.62436889117262
-0.40712202186793395,0.4901826664270206,0.397236422832123,8.206869741339151,-34.33818832676934,33.49202730280038,69.95298854103328
-0.39307051758917466,0.42780040642148576,0.4749901738527043,-62.2819389389911,30.981338745744296,44.62764711678713,112.88641095380282
-0.4068179450541725,0.47061848117221744,0.42436039581264834,-14.982612259901165,-18.791833094948657,44.11820720288701,78.32821670812612
-0.40293436418322837,0.45013573893079595,0.4503393997765072,-37.469874889114536,2.7831936745331234,46.009621430079704,88.69430310020219
-0.4222813350377451,0.4902020291054832,0.42204021397059555,3.2480092057401215,-43.106683554983064,38.955125757451746,81.0015561842004
-0.4142255662813653,0.4308439879427083,0.4918262420803835,-59.011879077741355,18.384489439644227,47.00501584020075,107.3951075904914
-0.4220371863592068,0.46992053398769024,0.44766172119275777,-16.832768911599764,-23.797489518655368,46.11397515319194,82.63522909852492
-0.41770264415366504,0.4488161839944203,0.47100496603324743,-37.185698365406424,-1.8698373470301703,48.96707275740549,92.25000753569309
-0.4397009977387149,0.4899995781560912,0.44564985371517457,1.495749960257161,-45.00723614470712,37.069929949457354,78.85269345036222
-0.43593433696659023,0.44877337398699807,0.4904538117828486,-39.2226662130464,-0.0412666459372133,46.02110834156718,88.82920633933179
-0.43900714089274195,0.4692301564308149,0.46915301875475246,-17.461154642539412,-22.584151034955426,43.06077499875027,77.3516740362322
-0.4587880078167195,0.4897886461293314,0.4679404549028983,0.4623012749722726,-37.46761126382499,31.016309178842747,65.6307187677849
-0.457896089346543,0.468748966006653,0.4898537318814079,-16.829554002293296,-15.544276680288931,36.86269327798244,65.87738343871746
-0.4790578914247237,0.4895511554558973,0.48946155325544305,0.3708245999472659,-21.581421688671668,24.824555946997222,48.194127535924686
0.48240058283853254,-0.008748472371977178,0.008870029388832029,57.78167453673544,226.18252907162793,-45.53544007999695,218.28532245350692
0.46217153186154386,-0.02706961098404087,0.010398149755053258,71.21663060866487,235.19676011018555,-49.53352490930743,225.8320480496076
0.46268031547150007,-0.009879419501288067,0.0280706386627537,77.8273084694854,252.21856198205822,-38.97853883500825,233.66595942911937
0.43964239443320186,-0.042018055005967836,0.017131864041747966,71.32273173859465,263.13308544033464,-55.766558180836384,254.73183798969092
0.4414198073414207,-0.015603542108289292,0.045320593394018095,87.64106436989991,279.05526202983333,-31.972879002479456,253.30394829775858
0.4189468296940698,-0.05956323041922079,0.016352033668537613,64.39834352907374,280.99481962236297,-68.6129435350601,281.30560328866164
0.4246702545423885,-0.014775007581749822,0.06779376297756294,92.10124941547458,303.44571644138347,-22.839982236517223,272.35860133688453
0.4027739759988703,-0.055738034699648165,0.039894732324390086,64.7429774555685,308.7208773843847,-68.3649888256455,305.8333525788643
0.4068375717981498,-0.035248162774659586,0.06750215205356205,80.10507244313528,318.72018935269,-38.02804757949245,294.62972538946565
0.39475206817541697,-0.07883199889126158,0.013342067850387437,50.55156184913028,301.5155075447615,-94.19655682610794,323.796163999704
0.40796832891887486,-0.013132924240427946,0.09613949725183708,90.47874537152282,323.98991334393554,-6.394152565790744,289.7659779914334
0.3822719194900632,-0.06500507615613194,0.053555667078579935,58.48980685454072,333.1693586757898,-81.40351272354042,338.8443053656284
0.3696853818243816,-0.09253995161748962,0.014005370587000616,41.20111156608734,314.27230622935815,-113.5949927648437,355.28539633602725
0.39462746369362367,-0.01426391658549614,0.12159139134773898,82.56733474807531,333.5665989365311,-5.49885672943439,301.05323106438885
0.38515321894951743,-0.048370567353530736,0.08226386508216212,68.57931807236,343.83718280227424,-60.381022616494974,332.0912755505844
0.36562950459782567,-0.08370132651582418,0.03817698227304795,50.90164874713143,323.75964106430797,-107.2641947177807,354.1866822802278
0.36192873946525894,-0.07632506643480569,0.06311650885702742,54.824062538651766,341.7776772176485,-99.565549202368,361.6903558174383
0.3803767174355194,-0.03948224107590592,0.11357812818202644,71.1160765954324,353.4290619900792,-57.381261061717595,338.69298387931707
0.34082088745883765,-0.10625686668141354,0.012136078042042737,27.524385827856676,317.9630594722775,-133.22993053317964,382.5663396665717
0.3852892158177781,-0.012220386942676076,0.1513352845929327,63.653301081344054,351.1317446335777,2.9049977553354953,324.06768923092136
0.34114943733144,-0.09795623190362862,0.03636522595901057,37.26843436616757,320.341125276859,-126.45297279898892,374.2189513248764
0.3629324511224752,-0.06717969280496072,0.08855716626856022,64.58668913212841,346.51274055834335,-99.08092067966018,362.3720403890561
0.374364993268236,-0.0363342832448279,0.14358471440297899,72.94744130887374,358.92372430246087,-70.81073205867526,350.7242236741011
0.3117174529798747,-0.11551418358320753,0.01188906754252279,14.67635609449175,306.63917720356585,-139.84632022089255,385.24487602705887
0.3410630658220998,-0.09086754493217608,0.06240682526087296,51.58728636615198,328.07579304223134,-119.86195335116324,369.4199477463415
0.37479378257404145,-0.02535257318130002,0.17126786004821815,67.65792284702088,360.67016478769256,-67.55174593374511,352.0626126779418
0.3606437630136885,-0.062067898301308655,0.11739981591620188,80.24557846226095,343.9557483845193,-109.95749944746106,365.26146356983406
0.3153675533151869,-0.10927970738761805,0.03552689211127786,24.61878916384856,309.0739687449401,-133.87788334050612,377.21829092221805
0.3756903729817776,-0.016472084843314028,0.19612608718632432,53.99006479319598,365.2043862987381,-51.449756785906466,352.8639891079422
0.34162439818384455,-0.08510773023066098,0.08886693729483479,70.53391592668986,327.0251684793814,-124.79966440424636,368.21053363764923
0.3592840721501507,-0.058483383741936346,0.14865762616967432,105.59301496740672,329.60892815504894,-129.43094924973022,367.7562259383503
0.31865977216459046,-0.10402792700389207,0.06072282903787355,46.08951380006075,306.0846221984114,-130.9055258870785,364.8472528787738
0.28085661081152025,-0.12185331111000042,0.013281632861237845,-3.736805315027686,281.0412966934028,-128.51246879183049,359.9926869774044
0.340720004234724,-0.08267363455469418,0.11634144173039708,96.79917941436904,314.63198475937764,-137.8338871538576,367.2897907246068
0.3617756707959824,-0.05272519342067872,0.18041926528753255,137.1025466640067,303.951273148209,-154.05857118093888,375.11747653598326
0.2888911356642612,-0.11793644331847786,0.036036929835915034,12.830725476412624,282.94182221771166,-125.72736691468936,352.1540370397045
0.3743804454623587,-0.015174307527573538,0.22584945894486896,87.25301071139371,326.742143113897,-125.98330792646104,365.34868534068227
0.31966394879849125,-0.10123338607190074,0.08568524825691301,72.61338052319581,299.81080125445794,-136.04409937672048,359.04447455581504
0.2963257964389148,-0.11469142889072942,0.059153224625789466,38.81755771629451,285.878044999636,-129.35996391542977,349.768455811671
0.3451246695348048,-0.07899974176651714,0.15919886444236195,152.5827208980491,279.4377658732984,-159.75826018963107,367.8283324741937
0.3345517328338585,-0.08935540654726809,0.13985494630636883,143.82294223079256,274.1651033995297,-155.2999651418451,358.85170798707617
0.36536256691887914,-0.04822308200222114,0.20929545049576537,208.6185819454273,235.55283028255803,-182.1299362136065,386.49720847087946
0.2506093083649429,-0.12514469921461713,0.01393538133204056,-27.82381894833568,244.09127643936728,-99.9496493286749,311.63450518189046
0.3191030558445606,-0.10161439801381006,0.1097919593012528,102.09931082371435,281.5992130487758,-143.15824163470012,349.93448947396496
0.37541134866187525,-0.013918247390512506,0.2551205434346504,380.9970336206644,31.760743304200183,53.69920756444811,377.7797640658409
0.2729090302580332,-0.12296371375235526,0.05027860591342354,10.648412906462706,261.67493843492775,-113.42415375985776,323.10347456974364
0.29623879428098054,-0.11504471830813434,0.08141526270622419,60.62585277431916,272.38283892360255,-130.45788234606067,335.2793466238519
0.34858233697786556,-0.0794529325640132,0.18924858110029233,223.6217547904858,216.44477645403626,-172.29460557171868,370.82281897325333
0.370098147867412,-0.04565379314484613,0.239191537930432,362.43987718774736,81.5431377543564,-125.87633558401846,394.95824923361727
0.3782626565815861,-0.011324205015892375,0.2824164413707954,111.95885784880338,291.76850933980256,164.14238851188742,381.8713801143115
0.2201877935304777,-0.12545807194661784,0.013043670325115662,-53.35422634907434,200.3236782865972,-64.4941712870047,257.18253987383184
0.24908650444621633,-0.12794609240136512,0.04141359145471851,-13.167154537673198,234.33684363380414,-93.15067677764434,290.178954146005
0.32955417986497365,-0.09951933764770082,0.16427297078716155,189.4691991579279,229.85054314729646,-157.33046930664813,345.5993069947785
0.3160770291481273,-0.10696105678756207,0.133260946374506,140.72042207739264,248.89988216883506,-146.00657556520292,332.68882215115025
0.27161284554072984,-0.12598305089360234,0.0753342271954999,38.563105996168034,241.1343779317231,-108.43554532434467,292.5898379275222
0.2965773934850759,-0.11720587595930992,0.1044351642756546,95.59895773114228,251.33168030977043,-130.48875834927458,315.2168709488577
0.3766496083186551,-0.042353019052879415,0.2686424266661675,385.02986424863695,57.34986512341741,96.26450397635344,396.55536408840953
0.35559298239934195,-0.07824109662233242,0.21928522891068403,318.00262948993606,128.75449022150562,-149.01378406747742,378.6481852484766
0.38456442660478046,-0.013754466996994064,0.31093410885964734,52.120879396492136,347.09099075422716,116.0477506509192,381.44369906516795
0.19020677973821676,-0.1226287819933567,0.012378558151390207,-77.27810488643007,162.17585761163645,-27.89424522179243,217.11707434227074
0.3840203159530503,-0.03452429468428353,0.29620771859717754,224.9949004458237,202.9221756936506,190.93784862792458,394.3544674685565
0.22036999049506736,-0.13112595264524296,0.0390368995512584,-42.583193422828685,197.22322002920416,-57.8450106930164,243.20126889672298
0.3318586007941069,-0.10564380769520976,0.1900142709531868,249.83494818574977,173.82400916059186,-147.23491762447986,337.9931035941771
0.2472096982117425,-0.13364723662982958,0.06952198592923838,13.586359396664335,215.34935668937194,-83.80648462723022,254.37118828413315
0.29688467451554246,-0.12143619565517622,0.12657806440608507,132.10380069871016,228.3753357791343,-132.32518149811017,303.26114041289975
0.2730158334388699,-0.13050398086362097,0.10065137879480816,75.9327929958276,220.19239569314945,-105.63293673423706,266.46877592151475
0.3118624667524313,-0.11721322629869474,0.15747641706800983,187.62079521455894,207.1304522659711,-137.8894835006687,310.29523983748123
0.39321863166784327,-0.015985369372989222,0.33704156930224766,58.50667631343582,335.33701972566166,119.27374018001662,372.7373992401658
0.366697175830556,-0.07561914231013289,0.25177429680612273,403.2264275001753,48.8681358058936,-36.59662435391523,386.38408540518105
0.16068626886450563,-0.11659918055000862,0.01183445763918363,-94.11115313814156,119.61745456389646,9.344639125979356,186.23788016131002
0.3790810129982349,-0.07070964460273826,0.2824419929582708,380.5405809475585,75.74848157598234,103.96811946152322,392.6215794085307
0.39170164055006373,-0.057960214443640024,0.3112379703748587,253.96470801967564,200.2771786944044,185.09982768002445,395.64065089005317
0.40531038765500327,-0.01446761794454654,0.3657709339553788,45.797496001357146,337.3873504998231,95.69101702219518,357.6960319853812
0.19117733929176184,-0.13129242398628943,0.03710278283561196,-71.41634886119454,159.71162861860154,-21.2654561449323,208.2565232170211
0.4021282066493288,-0.045660835438917524,0.3365781180664025,158.65993521457244,281.8387472299255,173.18816203724134,387.1329946097119
0.22108865430023453,-0.13899870603747966,0.06533172848977875,-18.593512066637853,187.1072860445775,-51.30964503930134,216.1755670397156
0.24962524534489483,-0.1408155644845197,0.09709890998473485,50.26476662263235,196.44635880003952,-78.16971193237941,222.65421590718918
0.27665053682899093,-0.13623811488384419,0.1265178382679741,122.92039536597765,196.05759041328986,-104.53067219025317,249.45642928802133
0.4191850126035596,-0.013749209178547661,0.3914540453330601,48.61584435403685,330.1487797764827,87.56769839263887,343.9702906127508
0.13196398510488175,-0.10730926641462774,0.011493588499268329,-94.08344024786508,77.9221359136736,31.90607378978841,159.0871718476415
0.2911845374897998,-0.13243155641000304,0.1471347887863365,159.79423561498797,193.51403620673346,-112.09756863685766,264.11559425989634
0.4166007909462339,-0.04386733639660856,0.36232269568026126,121.35024181404455,315.71070518293175,141.66261000113576,369.1780672726936
0.310571215444883,-0.1283328724882899,0.18065986291039407,230.8314203645567,161.0394279143562,-117.83713111045846,289.3106470480571
0.43443382002461306,-0.011442164956866396,0.4160104275740044,54.66302451902794,316.2947903122964,81.28453581604143,324.9035826805754
0.4323070821886325,-0.043277530737174774,0.3859464298903456,116.14470921846174,323.9377224915164,124.59739645460736,356.8965151953205
0.45051461451108393,-0.008367222645536243,0.43923685742528895,59.70206958553182,299.69705673728083,74.33124513173378,303.42302220230107
0.4474828925833309,-0.03417880752717056,0.41178087855064566,100.69064753167515,328.1293180988131,99.4614859967246,338.29818795387234
0.4626325826376428,-0.024483360550110245,0.4375073218881799,88.5326966386711,311.5851366143979,80.85101008849895,311.36557429028386
0.46972417817549345,-0.008912979679878696,0.4601616601802868,72.04935235326808,288.319748966666,70.29461560000715,287.0019766170259
0.4892397392548128,-0.010924119415440858,0.47837280940004706,79.52889966844057,278.32455948114955,66.9777110601712,274.06678321750144
0.4165267849011367,-0.0711113144912231,0.3489957275060421,208.62636173387781,255.7645548970845,167.18722843259368,373.4112288834817
0.34745182350800435,-0.10458457214383993,0.22935145165660792,341.40805071150726,95.74061020289429,-102.21421845071475,352.67881392256123
0.4912644952329008,-0.031247251120144426,0.46093490584639807,108.15193771368587,308.67454806637,73.34332513292482,299.5509936281139
0.47564765862472,-0.0389451837580288,0.43872327175919434,113.13139038732413,323.28019911741507,85.02906413802282,320.03981856338515
0.10490215441257066,-0.09481542223062522,0.011058483956068153,-86.86206385607227,50.691053472669864,43.80663304688552,142.3895848013243
0.49146628055401353,-0.0527081571389752,0.44231322709071885,134.77496728949302,332.4845110838575,81.78532012719545,322.4378522721692
0.16158540514000402,-0.12811177245127026,0.03536877469602454,-91.25579415082824,121.76084713276278,10.639543893675054,186.02232754419708
0.4639267617236393,-0.05400765202289032,0.41454756158002504,136.44843239251827,328.48922383175875,101.36786525100038,335.4516918170533
0.4021166178554043,-0.08710747694448362,0.324267930737506,287.65697588407124,177.01917344557046,158.8365554026671,372.62404301363193
0.33184512900564506,-0.11888039324748073,0.21237611792514413,304.2032988019572,115.92441225917186,-105.89415996712088,323.0390798094492
0.35971112432285685,-0.10269064981051601,0.2554346999495048,380.54944606809113,61.80145074052638,-39.19511586166322,360.1771282203807
0.48705882355924834,-0.07235742998581424,0.4230938440547524,159.6440601751747,334.7103795720394,89.8950648728138,329.1293183997462
0.4495168755850427,-0.06734480832303863,0.39040247016845714,161.50141714337892,314.69277965351057,127.77381656497249,351.09737684192305
0.19297930530467264,-0.14173056362623826,0.061697631928938734,-50.62406890203709,153.8431009066462,-17.95487637742582,187.0448944674988
0.3836769431665621,-0.09902176796899126,0.29671112436586705,359.5351797915115,93.46889895051774,102.74368902807868,368.8704651973958
0.0798864960429509,-0.07889482542603632,0.009800345140864945,-69.55452300923065,26.697420758386016,48.58926063468367,120.37549193957143
0.47415666071381174,-0.08565400858974598,0.40321456883084894,187.96698893252685,312.14879804202053,106.31953586430137,328.64315373939274
0.43593584967984794,-0.08678249562661422,0.36698633832696886,205.67803714205155,270.2101821254999,145.9178499697119,351.5917439742918
0.2242378254632002,-0.14856371773445676,0.09182612756292396,18.962029433413548,172.1160358592786,-48.17578329343496,183.52802867689732
0.05530242174752668,-0.05995871128012087,0.008876652146262463,-45.45207455435492,6.81234074680556,43.224145309616304,89.59304828221427
0.03236790785187665,-0.040671203183080096,0.009402022804125687,-24.5456049691267,-0.5899382294118851,34.43674651849231,64.38961788996954
0.2558694978568258,-0.1489834454659837,0.12633547333914996,100.91870878825483,175.64459189595806,-75.48244829601518,201.00393784273976
0.010590147337376454,-0.020787442099515996,0.010254074928796743,-5.6497624897005885,-5.817518328801384,23.65713009752678,41.374813017253416
0.4874788986569978,-0.10588054794430912,0.40351027720783184,203.37136718290412,300.4999740258194,93.53722958463845,311.1184610054694
0.46034377788883746,-0.10105743323219074,0.3843940236263826,208.51140523693473,277.4270508613931,117.38292530840657,322.3853655170477
0.131938884862067,-0.1213801750962395,0.03420626524995266,-101.86859197116989,87.1953279068708,33.5572999902725,173.89933199188613
0.2867363880670863,-0.14568247877692603,0.16731222513841873,191.57250327725654,157.08181818939465,-92.55050563193439,238.70264507519693
0.3674082971127167,-0.11580587559596733,0.2771545562329094,371.7110024379716,66.2311110586063,31.30631280088472,347.67377293216197
0.3120502660098147,-0.14137425495799766,0.2046104198273327,262.6603089993382,124.33555376053668,-86.50207499789697,272.4694107951315
0.4868597537783671,-0.12980772835983634,0.392229364864216,217.7429754105797,263.22322685528536,85.22107300017002,284.90587170856696
0.16350002232917488,-0.14117789746153042,0.05839455683958356,-80.79954070012546,121.77506404003512,12.665994266865411,177.98422254451063
0.43245213392617626,-0.1148883999545699,0.35565662940728354,254.5256185700046,204.3998397517014,132.41567075249438,327.3214306046154
0.40966835032365806,-0.11595075364564705,0.333093163037762,291.2586172507766,156.91033204196094,130.22150324247542,338.5614682766501
0.4587401744240317,-0.12315511642861576,0.3754833626701292,233.10553513224085,236.75914933819706,111.72290608542241,304.38337722881136
0.1965766600082568,-0.15365734203828874,0.0861771285355052,-19.590003484262976,144.98067466467117,-15.676028439896001,158.05236406809502
0.10258805178663484,-0.11088083587077013,0.0337212725097594,-99.73555670213997,59.454656079888395,45.5291182706508,160.09522933065261
0.3488804984985539,-0.13212251974583278,0.2575386370422777,338.6676513862481,70.79005136968084,-21.13502393950504,311.5650441565742
0.33560462312804706,-0.13276831732276673,0.23585807312161736,320.6960562524191,87.69583790467073,-59.510442823246024,305.02014610666987
0.22946204469527773,-0.15931361230118696,0.11826844851777964,62.63742333260654,154.09603756318842,-44.054868212690764,154.39997116390182
0.3882595336475884,-0.12765821125806576,0.30968590440366817,331.3414396400323,101.16533320160298,90.50779356135237,333.28109638242455
0.0550176619247276,-0.07562358175375367,0.02573028050051773,-60.63570044146447,20.29406790569385,44.15215822554397,105.67554878199938
0.2614458202231989,-0.1595664694328771,0.15435923015023056,147.65524443860164,149.63981966144922,-66.84547904127092,188.42504316954702
0.07842503889030669,-0.09467453531517983,0.02919194194601964,-84.77939941647577,38.645088981230174,48.0839322707491,137.45359409584185
0.4872443476453615,-0.15564124871751972,0.38387087398399616,215.6656540883462,216.457898665197,66.94733585690734,245.21215158450218
0.033027497566962924,-0.06005888414564503,0.028129189162979604,-41.127439513153426,16.061881993059686,35.835984915945154,80.39084437230142
0.1330481729657431,-0.1368658790055885,0.05587508758184576,-100.74333495947204,91.5058592837585,35.21741155321866,177.37515464156678
0.28947607862941926,-0.15940148079907135,0.19364789871366464,220.70871033498327,125.3118853635678,-67.3313720680852,224.40704047907667
0.01084642172255185,-0.042072153319318795,0.030626719328693697,-20.332949333901862,13.243230168013184,25.33752924157702,52.76416460178934
0.46009049573745125,-0.14806556628248807,0.3709004072727145,235.46934107246494,191.85435008966925,90.31455494790103,267.4850301273738
0.3676517174983671,-0.1415942429965828,0.2894063239413334,335.71642705132945,73.7677123336782,40.19489647471803,313.4151417313498
0.1672462138880786,-0.15564780923145777,0.0810548498721424,-55.480079373423266,117.42393338784316,13.220680196867818,154.6139309339706
0.3174054350040837,-0.15624061525090122,0.2312091945766608,278.9234794042932,94.72138200311196,-49.240373435717686,260.0466751518893
0.4350238384148951,-0.14484524133286936,0.354584498138482,257.5724306168158,159.10801940883113,99.92634171182493,283.9593296020056
0.48824112403276454,-0.18199393639052358,0.37835301280318007,195.00414894168966,166.42448346965983,37.161039537053725,193.4246380867181
0.41214541204370814,-0.1477366726547048,0.33674461840246184,279.79660882832565,124.51081054085911,93.68011382974085,292.026151025955
0.20167655859383857,-0.16670269549459776,0.11047992934070568,21.219540713969806,132.12793178405207,-14.621001066145922,125.48181642862579
0.234697636466614,-0.17167730460956976,0.14402847071901032,104.1879050900803,134.24157914265072,-38.34374890641091,138.92552490996317
0.06252836579791583,-0.0965842261981375,0.041880247718844285,-84.90518367208288,37.99159496037879,47.135869136282736,136.17380558620025
0.46261852063359743,-0.17243353053170646,0.36925075121548434,223.4791477917466,152.65758711925992,63.694738185558336,226.50064005875063
0.10194792489633633,-0.1285025408767836,0.05472646830700176,-107.91501450984086,66.22879055093425,48.09752906508378,173.5485547455573
0.38930420901801366,-0.15671444756504033,0.3181681639957236,295.01132536627676,89.91095845481877,69.31391672297062,288.1044405773013
0.3459104828512202,-0.1541975621931319,0.2686284443233138,313.57006773015024,72.26961186569201,-1.3612462346956917,284.4170460114627
0.26491685128083076,-0.17393808377607933,0.18110088332606616,180.1994902530521,121.90689738819401,-48.52878994945145,180.08530620921223
0.03663665185801729,-0.08237098114940983,0.04607365924984232,-65.8552763355407,32.18988572234616,38.52328544242838,109.29368942138954
0.4744988382832651,-0.1965651143547094,0.3717785690607024,187.6651522136126,126.31081538935948,27.630301142203077,172.50737279038265
0.1366503482952444,-0.15409881515859336,0.07698070730710779,-86.02949188213248,91.9571752967621,36.543547738304774,166.6568848612599
0.2940328966787657,-0.1753743106521553,0.22013482733107373,236.41802046201815,97.33154976085001,-38.83240227254916,216.51753982954526
0.4391227418594832,-0.17273591562715485,0.35696029767763365,236.12093739505536,124.42096821435945,67.69021824963764,235.79901548012046
0.17250388991711083,-0.17112608362445358,0.10343973904737357,-19.504572717152712,108.70372145585799,12.721663447726364,121.66622052823044
0.011863948246234369,-0.0647232356253159,0.05001755016089441,-40.078870505081746,31.9290161504332,26.0486811487143,77.07826026648345
0.365288035140614,-0.16855138236436512,0.2994516701523071,288.82230429249876,69.59821023486815,36.899208195324256,268.7849950543797
0.4149842717107581,-0.17644000065539256,0.3425944945189315,247.67145630038016,93.52065664251478,63.51419252224299,242.9547781280221
0.2070618552856953,-0.18098662360774137,0.13448346102926645,63.38198761680151,115.89334894096939,-12.158103970148531,102.69592178860032
0.48544803802948583,-0.21929345201808859,0.37401229838945926,150.3059048669056,96.68498938140837,-5.51403623929129,132.2828075770515
0.32375271214061846,-0.17279473670021256,0.2555117859449203,272.45251868396264,74.28194631230787,-13.691254789769253,245.09636980746893
0.07133089014504641,-0.11812432247732879,0.057074059189332456,-102.96141342491535,51.509404094818926,49.97431752652999,161.4002777310643
0.23879842005852123,-0.18657119475421113,0.16926216818231649,139.0285693790752,111.81795857660416,-28.2153399708341,136.65512936237252
0.4468586112254789,-0.19847889147112835,0.36193805613719215,197.43825971136508,86.53280945757326,33.67547158419639,181.07185966485451
0.1054904728127714,-0.1488746337111203,0.07463324222883351,-105.30023438516506,71.54582610765297,49.6176472224887,176.4269525925655
0.26865467484569183,-0.19076146193329874,0.207072199232217,195.49035690072844,95.61097789724889,-28.65619270364534,176.4382234202298
0.39000355828358074,-0.18401553791016761,0.3270016269760064,252.27482806747312,70.8022613450867,49.23367893168654,240.96843404038677
0.33985846101319966,-0.17913424654600146,0.27914803570990565,272.13405407837524,64.48222728535757,10.977024079175127,247.03962489962893
0.14201761372530194,-0.17236426011295902,0.09760190263651967,-54.673921403732386,86.94901432994146,35.101709903556234,137.83904550118353
0.040880042088024045,-0.10495586734461337,0.06220253729863806,-87.4761879787017,44.72680490768862,42.29991009943295,137.59704981425878
0.4876739208288486,-0.24554611597413473,0.3742747365518104,110.04297173629698,58.86265225773501,-41.23990306538046,119.15970415864169
0.4547312071652359,-0.2213091988457936,0.3669594790212644,161.27253511874537,61.51814114289638,3.902642234223009,141.13049827950587
0.1783962745957891,-0.1875308484543346,0.1256610558783169,23.715143573861454,95.6685826872206,11.684305396450199,88.63216431954993
0.30038537646605884,-0.19359623739422654,0.24680369769154303,232.01183747385073,74.0474212479133,-13.76304799814071,206.64195974711234
0.4199994570324839,-0.20215235505548357,0.3504097655009135,206.71807065442124,66.17218509388013,34.547316940952584,192.3868075130069
0.2115809047955411,-0.1970879510270313,0.15812655725657915,101.03985584529994,96.22715367771994,-7.885726098290391,99.6618977666287
0.07450590921997137,-0.14003247503789612,0.07464916700867534,-109.75290020515645,59.348092064179596,53.25600002381775,174.90032869151028
0.36317000183047865,-0.19371695142533596,0.3098769892131831,247.8758293548487,54.938987461961204,31.319731561179623,231.91690062572712
0.01307586743672417,-0.08822353316830606,0.06764705072372505,-64.48009399884707,46.40079818554112,29.3089708778641,108.9939986638675
0.24190685793491976,-0.20414315900874158,0.19389853409823785,159.9766849356311,86.99908806411943,-15.955932107743568,141.44727163979692
0.4600513475045377,-0.2427697967637169,0.3711418955935922,128.95776140368758,38.33920770426329,-24.57723466145848,122.34370463951727
0.11015886969760232,-0.1703033886376727,0.09361978361390941,-83.70312279359833,70.08225416458609,50.98908934554579,159.94843024251446
0.393007120974272,-0.2087099010801719,0.3376706170858064,209.8486371539322,45.593216965323904,29.152510189947485,197.72992706238983
0.4734625562181546,-0.26327728443347953,0.37532397528708505,93.73949532648821,24.34065367794348,-53.824115928635045,125.654232639989
0.42635487562598073,-0.2254993154013753,0.3587414789147582,167.3421622015557,36.128825986519914,5.059443089580803,152.77306487793632
0.2719197134147317,-0.20988576327886527,0.23182522540182904,195.356483469643,68.89930192261218,-12.016923146550077,172.87152289392176
0.1487664470149891,-0.19125333719378973,0.11797717657976772,-13.421828075891348,76.89329605475913,32.05401764515423,101.03045673699981
0.33353769717521936,-0.2030348910561957,0.2891541755811265,234.8366864444014,51.89028898700052,12.839244664538407,214.82473432465486
0.043364630934620285,-0.12756279488461514,0.07752289683674435,-102.5299477002628,53.98865610322516,47.55758288080568,160.46118009760553
0.1835210572048415,-0.20527627025161205,0.14762793749342937,66.12025196319956,78.63918996938708,11.222776045773564,75.72462591707747
0.21451287748903228,-0.2155744268804069,0.1811682435337764,128.72710943706272,74.00995443829756,-2.894951656459938,112.00980667267206
0.43375564294903174,-0.24783223615918676,0.3670374789570006,132.32056330290376,11.574701376921396,-22.570486837003685,132.81345868052532
0.07750283216146665,-0.16263412041144554,0.09101927734447472,-104.09797425950559,59.663385141395054,57.06890214223518,174.2914916951114
0.4846095265553527,-0.28412611793993603,0.37899658842029854,61.589240540361516,1.4568503607977306,-78.81966435938307,149.47658386913713
0.3038580765670846,-0.2149309011913173,0.27019201303879586,211.01060374369172,51.815476378628404,1.4636500346324741,190.4813123247836
0.36475999153616206,-0.2169271163592733,0.32332529498464657,206.0452754665576,35.64370660408939,20.26947640403315,193.94191666001504
0.01386754253424624,-0.11262962970474194,0.08339977377740866,-84.00402595038047,56.67679403650505,33.67464930175816,135.76435560169963
0.2435412316449957,-0.2244247073899926,0.21763116115837144,165.78274886300196,61.46279011331731,-6.808365070531902,145.640604215007
0.11820873368593691,-0.19259221388399528,0.11234263797814233,-43.96698264229059,62.247723920258935,47.50021654687103,123.7478525431585
0.39829353854278327,-0.23160339102509525,0.3493730939184475,169.0191939370452,20.97592692631963,5.881048437285752,159.89341249889875
0.44397356529188264,-0.26976281831996324,0.37520020869857,91.6200664861603,-15.954162713942296,-51.383866252102465,134.2810428633009
0.15495318433164892,-0.2112336346498272,0.1382678363236054,34.2127745481393,60.89874682545529,28.6938241718198,72.56488716038305
0.1865624106002876,-0.22489588281714856,0.16877978016505105,100.92320705136522,57.50673434121231,10.71835471887632,89.62925606628927
0.04430671131531448,-0.15037585392166153,0.09144316210008831,-108.20192715570755,59.46041563222784,51.99885129092907,172.59365931279515
0.2732339231460229,-0.23126345657469272,0.25472927122487465,181.2203570526232,44.52882699467638,-3.189393825741936,163.66007764760275
0.3352940722327057,-0.22614836173168507,0.30725951303052734,194.18002225250652,30.36289974215886,12.309933219634498,182.17168150612451
0.40536561169289265,-0.25344840926202006,0.3613304344952577,129.0460271402672,-6.178768555511766,-19.371730598540573,136.43383625554353
0.48641749199936474,-0.31158152455171306,0.38469888866828833,38.48013761325782,-31.546549136081282,-94.41702153788337,174.45212286861303
0.07250593026034631,-0.181516074520437,0.10338532520621756,-86.66863164997302,56.70543769104336,57.57675920728745,159.95871551762636
0.2154207097953168,-0.23673826027897155,0.2034400310765989,143.61406698788392,48.69980594802986,-0.6384684166490757,126.50658903083287
0.3693617325842169,-0.2389601512838498,0.3384579818656672,164.46241486540427,11.09228926802868,4.923390175828814,159.43456155310463
0.4528574158349264,-0.29147746181734163,0.382870568695716,63.21960002917713,-35.70693580971428,-74.35313662902644,155.28763013405108
0.09335050800929544,-0.1982670464930381,0.11285373939612504,-55.268080119686054,50.297970548964,56.72902147462889,134.23436378224824
0.12672001849383088,-0.2160562669654404,0.1312447623222587,9.114262755952986,46.866693222107216,41.83143548567413,84.27341423608685
0.3053124444923995,-0.23771149340617082,0.2913438883898585,178.7721971344891,27.58607655986829,4.4400694914230945,166.87722799290998
0.014176411913204323,-0.1380699690794499,0.09694374821930508,-97.07043365097535,64.24686872356865,37.990629357236756,155.2954100885238
0.1582388390591118,-0.23253166877914233,0.1574025212317324,76.80844681991117,41.070194914800354,24.199851995033725,78.66803061583911
0.41411897219670607,-0.274802968083407,0.37318703005786646,93.72449600335317,-28.263637026865894,-45.99310521381682,136.30189524090034
0.24306254186782145,-0.24749854654346443,0.2405614908439083,160.0304250137782,33.865217522086894,-4.917723623171071,146.32045910113465
0.04267051289302926,-0.17312187815380553,0.103464831564227,-100.06548251825495,59.21459894071259,52.93633588490407,166.88790820549622
0.33961576111605996,-0.24767852688031033,0.32603831224582747,157.5191352095527,8.026041500854319,1.9086092129628902,153.69895429166604
0.37577464737845134,-0.26011167729180473,0.35397981865596845,126.54455649837331,-12.07661507747278,-16.909461252195776,136.18145596812485
0.18726044862513647,-0.246625522866238,0.18880454414620448,125.83256946269361,34.487754759860636,7.5086008255213414,113.36972800795834
0.06778167619877616,-0.2023466247973123,0.11433746179526288,-60.500340037863026,46.72610216084176,58.27839211738786,137.33054212585552
0.2739270188456404,-0.2533915595396641,0.2769587403845388,158.3259887504783,22.05545459318995,-3.4542456321646373,148.651961218084
0.4580307449101844,-0.3149237579847812,0.3913614572328089,41.859350323746284,-53.06748384812185,-89.05999821866874,174.8850573857667
0.099445336521331,-0.2215427245827803,0.12730717605757166,-9.499223297789008,36.100248781896596,50.31084105409885,96.59156128965641
0.4878448165967936,-0.33913926311773746,0.3929406507287904,25.374407226140278,-55.49999083835927,-96.90970987270548,182.5016835444303
0.129905645114341,-0.2394982355488277,0.14798264277808398,55.93691394700748,26.726569594762736,36.63458203800471,79.84061525311262
0.4227004527768372,-0.29649147962632316,0.3849137336089808,63.26714010673323,-50.83218171322349,-70.71469737306356,157.49398004712594
0.013874347938393686,-0.1645622687620349,0.10804339526044753,-100.18477632640253,66.73449932547965,42.513970389982234,163.09070093335257
0.3093839277974003,-0.2585151015473184,0.31293428204541124,146.47648622787028,5.074958984513756,-3.687793566204399,144.14767958838829
0.21420105907268375,-0.26071257323870933,0.22522366997157903,147.151262253889,23.20088298998479,-4.75559756223009,137.27921496558906
0.38384341174139014,-0.2804285552943913,0.36936142043032594,91.66141899104088,-34.70144987472298,-41.82727030809686,134.2957635806225
0.15885337362860663,-0.25525005730369715,0.17487236727226582,110.33046168665751,18.695171201543715,18.079795130041315,106.95938625525768
0.3456397597281324,-0.2683670901045861,0.345316115736162,119.9638591838742,-14.309318597680573,-16.493037800289702,130.87683552841972
0.04120412965422729,-0.19809882739056872,0.11389671938086884,-75.58891244109554,52.51446007257484,53.301032682616736,144.78937592295597
0.07104550887298457,-0.22533651450320946,0.1244654121907404,-25.644409631076183,33.5145911652901,54.23793337476277,107.0774753207197
0.4630026920269501,-0.33947494416059054,0.4012560523650207,28.44593557834997,-70.24968822712697,-94.67689074786783,186.1011794097375
0.10169190811794598,-0.24625072037415846,0.1405563576371489,39.73599459981159,16.92230666853736,45.96383474192315,86.78082366497445
0.2410377563248061,-0.27301205817140267,0.2640511829008165,142.1401992115592,10.586612581830593,-14.070614746663846,139.3021032667835
0.4891977601905036,-0.366393384064085,0.4039428767533085,23.630977562539513,-74.87097871409196,-86.97503667922415,175.00666269688847
0.27829915248326714,-0.2727852470807418,0.3002440601431377,133.51799873679758,3.2478628256014304,-12.527946918065524,133.6966896258582
0.4289793860208295,-0.32009304089811175,0.3978632288277388,40.75937851271025,-67.49001449477208,-86.95183496421225,177.90150322804598
0.18599835163800568,-0.27032819559440296,0.20778883195213943,140.05282498694436,11.534296606143982,-1.3049313068684114,134.6756529527194
0.13047279479777035,-0.2641451857468027,0.16289158842787033,98.74043360608421,4.398969548372833,29.185599228210776,109.04157742855682
0.39361575101627205,-0.30055025609691444,0.3845729835439709,62.75462930638301,-51.338123926759394,-64.77252594682314,149.60578784460654
0.31570211651217167,-0.27818961380734164,0.33555902906940704,112.62642009787754,-12.255805411185577,-20.305276216568075,124.30669928009448
0.013631239025312124,-0.19256727582205657,0.11657596551980696,-86.45537455594858,62.586307622250956,43.80514684790816,150.1971139205155
0.3524328575257208,-0.28881586932785874,0.36501179395598526,85.15067060538671,-31.63560259212636,-40.392903673945135,125.85706509082802
0.04243829681217785,-0.22457832561901597,0.1221806132416624,-40.62827614540254,40.21231752446991,51.06744007077975,112.80556169894591
0.07302618802483314,-0.2511265786208551,0.1340778743264088,24.14009280360811,15.51719457682654,48.6586014096403,86.90177998402804
0.4675432545328953,-0.3658975840440542,0.4140810965613336,22.587020265222943,-79.12415557083354,-86.06587023955073,175.4422595752793
0.4385693048381373,-0.34182903144210075,0.4090082976194636,27.50156199518333,-75.58996624519776,-92.75287862606723,185.35994856574882
0.10254262760791916,-0.27283491361561824,0.1525079636644091,89.06051403210732,-5.0180576718754395,38.327599215620495,113.1851644123961
0.1579444736202702,-0.27899686908598753,0.1908068923872106,137.44004370032928,-1.3780097909641427,6.566517698591561,138.60164397755085
0.4908905768055096,-0.3917374365549666,0.4166441929640076,27.326218393736788,-85.11042686930693,-68.56454231323919,156.26753493181042
0.21048901392494787,-0.2878140324873125,0.24713139002642007,140.86198841261046,1.523377437437091,-21.728925184639486,145.07333680752635
0.36493632442717794,-0.30552811565852,0.382780563756062,58.86658527403225,-47.97794285237666,-62.47078619822085,142.47544669533193
0.28584855234484247,-0.29035097409853255,0.32541974511924154,103.69164377723526,-10.048843832700015,-29.55632642515614,120.48089758100075
0.401365862519825,-0.3230024140385967,0.4012446143243904,38.01163982306823,-66.2567092791254,-84.5299735702979,172.59580455765098
0.24618653972293453,-0.2924150961705696,0.2898197199916337,119.5032995044071,-0.4720102623602145,-30.77218171044073,131.0665848778434
0.32176643603194166,-0.2978732172290345,0.358701061505341,76.70750591481453,-24.93741220576527,-42.888026440347346,118.0548648777731
0.01400656722234386,-0.22150747860738812,0.12233665110644304,-54.401153643295665,52.389729215741596,41.448494812397186,117.08186930544095
0.4474888296162138,-0.366008730716488,0.4225347996452525,22.73490903941004,-78.50230914493028,-87.49175336892787,177.28127992153597
0.04406120215300076,-0.2521132536901302,0.12862677777482748,6.134447576174004,23.548153670031027,45.258070758192524,81.19464871768588
0.13014219387538892,-0.29022490845629634,0.17648205181219195,137.2877136106746,-18.224048897452192,18.45518937724317,150.67764372120175
0.07406030137847787,-0.27975028612231223,0.14245536108349063,75.95427916358203,-4.868368004412687,44.24535293468314,109.70633838437948
0.18174529299949568,-0.29617511449369327,0.22488094715298387,149.06228328553075,-8.12026179239615,-18.872324596408436,156.73041064369193
0.375044087405686,-0.32345735692648636,0.4007833019847032,36.37468614187288,-53.377675640868944,-81.50765927763857,161.38273082929206
0.47217446334825885,-0.3931580142943419,0.42939191385644926,26.57685455564571,-81.50687012834362,-65.54400684811026,149.67947691648607
0.4250913286800223,-0.35635391947425643,0.4230757572513775,23.881366105585215,-73.76353505316294,-89.90973580527675,178.9531629063285
0.3490049120549923,-0.3193941792276893,0.39233802284595926,40.97384021220949,-38.92753399885697,-72.3997588512095,143.22846884621862
0.4881493704241283,-0.41491987843489786,0.4338884132578175,28.8050126184814,-79.24208057137645,-49.21992283990331,129.071327680096
0.2910626588504201,-0.3083236080244515,0.3505604884477975,68.96517572297097,-9.70275091929426,-51.709002411358,116.36560295543079
0.10409882275990368,-0.30131092207948473,0.16391410511368315,134.85722696741104,-25.80163740359903,30.733808483378986,158.6361698390177
0.15616571498297055,-0.30259946287972506,0.20499206950039092,155.32323499163027,-17.495540297989066,-8.756635083928167,165.4657098905181
0.014562215321223404,-0.2508243399095399,0.12545056127119852,-11.378334861775127,37.891994365433696,35.24428906515138,75.649833290041
0.2582583109971752,-0.3054618505493598,0.3175856091201478,92.90056419857885,-4.2123570551949,-44.87028188303695,122.79908678894063
0.4017897088284609,-0.34604298163889463,0.4200433216255298,23.641919896062245,-67.83314495635724,-93.02584172698653,180.90164011816262
0.04492399992609087,-0.2812359266561811,0.1331290047428382,55.958187829868024,5.353869826843962,40.4182946190502,88.09827168381574
0.3239762918941605,-0.31747220219561534,0.3816881203763932,44.805866112029044,-25.09290946002389,-67.46898165921257,131.97620900464833
0.4522524635633152,-0.3928269485377567,0.44023148313082694,23.632739293581952,-72.9488536013161,-68.72988481542667,147.56494857321536
0.07765007520637575,-0.3100670005070772,0.15056603572714564,127.9520538611618,-24.128768405860157,39.12150238523213,156.94816619947036
0.3744069225683402,-0.3419911439582124,0.418805069361014,22.566583998751877,-49.53990598543993,-92.00312822976302,171.68321484733534
0.1312699898695338,-0.3171326160588218,0.1904016500195053,170.24694668728011,-33.89111257348641,0.5109091623741904,189.48158719991207
0.1989059019894096,-0.3176436180981576,0.26305781565165925,131.28354143208105,-4.892184452260267,-52.52617305964283,161.7979035363877
0.42565412125912294,-0.3800016887858709,0.4427412249177032,19.683660423137646,-64.35736340619336,-80.26625770023097,158.50590391170252
0.014511227448321985,-0.2799477654623195,0.12582204881697295,34.53914725703879,22.739323483067988,28.05928807425842,57.32890741246125
0.17160178678815835,-0.32459718267181237,0.23654328702142707,159.22170629180542,-19.683822016469747,-46.77723883024689,188.24831088007775
0.22028971197714556,-0.31890616822053697,0.29154048420394796,105.33807134218554,4.809820429982977,-59.98383059168773,146.31051307551445
0.14593147939238255,-0.3296820682936193,0.21133160005569776,180.21934358097852,-37.01317725837552,-28.879445343891586,207.41635589071083
0.03889851322758423,-0.3079015931627767,0.13199166126092304,92.8205061627405,-0.9122648134778757,39.49222744295538,115.67222466243608
0.3474819555692406,-0.3383743561720868,0.41355260902301055,19.933748284788038,-31.027341366231184,-90.41968017352828,162.8057036277538
0.10836210119202896,-0.33216989300107386,0.17697715683038512,181.92298228744855,-45.12276634461573,18.78403578383959,210.7117076728486
0.29570424779553944,-0.3245047369745486,0.3750815905533024,39.287241974077716,-2.960645159580224,-71.46140476718976,130.34095863685707
0.05541675221704148,-0.32400440549795617,0.13925643930357953,127.46015964475109,-20.89735367188959,43.76363835374595,158.40498681606502
0.48408735660439206,-0.435388772762534,0.453354510875528,29.909003862137876,-67.28660384844544,-26.521817584577136,97.6971406327998
0.39957365790031296,-0.36837035985143696,0.44177534286204334,16.8403522478241,-54.02693790911965,-89.93982222912331,168.46321561915667
0.2599762577703963,-0.323297579826781,0.343173319390472,61.291763823756575,9.36620865353757,-67.93248385974827,130.8235522316872
0.08288104828237364,-0.3418647914531716,0.15814778626011808,178.23272997472642,-39.73445854263683,40.64594531930186,213.03519160631902
0.01292061497197545,-0.3087211200070184,0.12286592092988954,74.46996377973132,10.548997473668305,27.276148526869953,84.28189739592369
0.3226726760561748,-0.33732661697512545,0.4070919229907149,15.487280491528697,-10.241990401200042,-89.62297420742031,156.84453232385331
0.45477528024438674,-0.4182298148590455,0.460892683694378,27.05389620298865,-56.87177866644498,-46.89840948849655,110.01499053774738
0.23607877218288031,-0.32764713285988323,0.32305428185393414,69.5184650413518,17.27383976500269,-72.0866062595747,139.71323524336643
0.0333990097509084,-0.3364150977394644,0.12743245895361935,122.59430627314082,-8.446700194623467,43.1671813609565,147.3989303400018
0.3728627086745608,-0.36062517078552975,0.44013374787430226,11.049472848806156,-36.68619237970225,-95.82068852574746,171.51718192888885
0.05909971097888647,-0.35396086628271595,0.1405463510816987,163.40401301359256,-25.639543980060708,55.459298815523624,201.92836239112333
0.27522668762707425,-0.3362831403588202,0.37898704831633456,23.655838860598436,26.459362611410057,-86.44300522010545,151.82541822158947
0.4263464710402261,-0.40200104326847524,0.4641061128844517,23.139078460718746,-46.2098993098017,-65.33645037377809,128.6335161393026
0.13477799448970637,-0.35806076235943773,0.21399442366379293,210.4468089201132,-48.44855248677442,-38.55571372661987,247.56937224396287
0.1104150745845476,-0.3634784325043239,0.18685760185627673,223.03202895093222,-56.09868401478883,10.152710249726443,256.3423183551652
0.011516025296943106,-0.3387813814184738,0.11655103425033438,105.41626875204634,5.409998431746757,34.7714737408795,119.15839085160565
0.15907712376664643,-0.35425969333044116,0.24411066182725136,169.97962569421128,-20.345335383461844,-80.34446112342773,228.32213124389787
0.3459484847923929,-0.35577559981794293,0.43698950548982496,4.935286221344997,-11.822924747628406,-98.80006839671573,171.77557644457133
0.48764692336826326,-0.4587733894797612,0.47139031034649176,25.625198788486433,-44.12210952590101,-7.344178883275802,62.41682529528635
0.25671822183543275,-0.33765369653375155,0.36238800579959934,26.309940325716546,38.83280990756256,-85.18517823075024,151.486154299744
0.03549494412387689,-0.36443868726136364,0.1230988316085618,143.247523639216,-7.898320277132548,58.79715725923363,179.12277470460785
0.2994298588930189,-0.34074092313076354,0.4031187670440196,9.118989087759044,15.449010254824884,-92.84410182746538,161.37233423468908
0.08610170515488606,-0.37255391912793345,0.16263727469882308,213.60522355444,-44.204372552488536,53.03606196524666,255.85537823153922
0.18150419523076983,-0.34959233241716803,0.2733066961080077,122.62449239585982,10.111050682180064,-95.39391268202816,202.97569498368023
0.3987769606858804,-0.38809671511221744,0.46432854843030047,16.238921544709005,-33.12770131051863,-79.54248300357658,144.49956787726052
0.061944231327107,-0.38512118238584625,0.13831936586248286,186.74953792965565,-15.32720724598856,80.69747171112903,239.81014968417668
0.20062376814021976,-0.3487230972975165,0.30293796397584166,82.17276719155942,34.09732423330556,-99.64498652182712,186.8167276196545
0.0119799525106229,-0.3680206518345826,0.1076227148052922,118.1147898091649,8.404427199569785,50.06907681571321,143.35197304399347
0.3712454546256529,-0.37773877016715085,0.4634103739456993,9.371498842467977,-13.322959734412791,-90.9671360937356,158.79307886572735
0.31995254056258543,-0.354103891761375,0.43328545827093407,-3.0307043083016705,18.619877362572595,-101.86296627280154,177.5964752967415
0.03804060797626168,-0.39505497606190104,0.11516465036553725,150.266952860904,12.438406440559014,84.6325967833825,205.80043478454863
0.2574702714324619,-0.3492003340601068,0.38696259600659233,-5.933076116466701,74.1479255106413,-93.97730558760429,180.1894653751601
0.27891088746788273,-0.34738253047748924,0.402838924090322,-2.8347003031046967,44.61337707354642,-95.71796424837208,172.07742598256658
0.11009661417463852,-0.39659061651726446,0.19243776323925893,261.18173251154224,-59.831923621124446,22.953317748251067,298.3342527095321
0.09038578371129742,-0.4030657716774203,0.1661656870798043,237.25490049076652,-34.80830604165455,79.26085431257167,290.8724741903469
0.44971578881587665,-0.43899678376873014,0.48587219906929,28.698543909978742,-28.645446191267,-30.975108916001286,73.1069266380771
0.013180701761793912,-0.3966614351380104,0.09562905621517606,113.82117745482375,29.522159888432977,68.9990750871472,157.31874793175479
0.4702750585516033,-0.4592611332635984,0.48827255762015587,28.091732204402128,-29.493356480126764,-12.65479681142759,54.47893734070005
0.07006333390313951,-0.4105268172462396,0.14065849240221034,196.8655977784358,0.48637225985120836,103.40573711697056,265.9676476323194
0.12965953476765296,-0.3901156393255606,0.22120933550582347,242.5451472187023,-54.61689777939014,-57.324031875657994,291.4041032078335
0.49058146861006,-0.4813368268793196,0.49072868024133515,17.18075914460209,-22.33562761161187,5.818175587175828,35.76807634494314
0.42338256558936394,-0.42086916147165426,0.4875205924072824,26.63424276858488,-20.51632119936417,-49.34545567707153,94.77162545238431
0.21718466981796447,-0.35175960534029505,0.3350193261511269,41.282682304627365,60.061545783591185,-102.120958057253,184.71117359397635
0.34353484095299164,-0.37082459704518095,0.4616860045903666,-0.9844715828459307,15.378656940988947,-98.51046935827486,171.36379385363065
0.041020529092948975,-0.426345815144492,0.10260110100428528,134.3592938214506,59.00481960709965,107.35119459979687,219.49710618731092
0.010454148161873452,-0.4206573486523328,0.07918384652104897,97.24519889953467,67.88012671205291,80.41646577764769,163.9016406034972
0.05960659322475844,-0.4311442079050203,0.11972493838287789,156.6677663851425,51.01589855433133,121.11017458175631,251.3123300087916
0.14867799422784095,-0.38499355143971575,0.25195796781230256,176.9777031703095,-4.905798367310496,-119.79518391612282,274.346586406347
0.29473754624890885,-0.35597736927502033,0.4307261684648402,-14.425231135610762,56.26494964199108,-104.03815370362474,191.46090732347412
0.023974514053133868,-0.43600775678789827,0.08004683056573944,102.73281432646915,85.33492286863833,91.89063425509443,185.47519889520657
0.3967039917006208,-0.40517243523149515,0.4878799933974828,21.580962885305247,-3.7352998911820805,-67.21266117746306,118.7978419851153
0.24082558485124447,-0.3537167917411206,0.37761187983995287,0.6222559724297554,74.81434117339364,-98.33383203046134,185.90225050405004
0.007792620105287448,-0.44463372547355046,0.05907031930165845,74.6235435873489,118.77197912186105,79.62683451071815,172.72396661636958
0.07789428316491452,-0.43613072830684924,0.1401002559424524,186.00785729981934,41.79217147869011,135.3458174726194,289.01091195231925
0.009319507713091852,-0.4666520010546302,0.041451120135634976,71.04648881536562,163.70930170736756,76.5388280662941,194.40150352059305
0.02766585200292787,-0.46252589903869334,0.06320759853251068,88.86323480195381,144.75741730591162,94.8917758152534,207.36711251614204
0.010323615367681312,-0.48904767389244846,0.02119853353632809,76.51143742833051,216.97433180941988,72.88134887939411,228.61740037263834
0.09552101673933631,-0.43605763170455547,0.16685002973839735,234.49829538616908,3.8763614697276125,125.07481269264528,317.84682296762406
0.04478980208428929,-0.45888031069173635,0.08444589935394113,106.71943006841639,131.30075443966777,111.75260182875934,228.21593992464852
0.03047552598050708,-0.48796265045761456,0.043002762956079375,85.18865621534941,205.6197303339083,82.05814060940659,228.51854947176042
0.04943984521212877,-0.4869856270679344,0.06508856913772879,89.1131659962711,195.24314543731498,96.38168562236963,237.76163554150997
0.16633792505321612,-0.38036861901320246,0.2828986498735338,104.07451033432085,52.09751834990246,-138.24442273190863,255.84798740088547
0.06203340195360916,-0.4596489921313541,0.1045346045824246,121.72765014213725,123.7285153708312,128.80340842941433,254.62941495913932
0.2573995798883651,-0.358420697653684,0.4110715526706218,-20.858231705413324,98.90426805829144,-104.08037903727073,211.6087524453161
0.1113912935018735,-0.43125616470699685,0.19585394112272497,279.1319397021853,-44.60147504480179,72.66116257098022,328.926376594231
0.0673049081053589,-0.48699938743151555,0.08773771450133112,90.5687747684769,194.38731457473838,112.27416548714051,257.29394634653625
0.07951309607967195,-0.46120499569121626,0.1277393452256985,136.5872040115252,115.82772902631675,148.8443992391522,287.60303720747294
0.3157741551901745,-0.3673155450895984,0.4596557033678488,-14.053324545266,55.4528134646107,-103.79076782018043,190.70757009250985
0.36923787576146017,-0.3925684618972608,0.48769189858036854,12.359036450166965,14.328001164201737,-80.92479791811547,140.8098926388164
0.18222010073289288,-0.37707121229106455,0.31373887654714805,46.51964867288186,93.50457307874458,-131.89141581266134,242.37041837972023
0.27026867452986963,-0.3603061497667751,0.4277230645646036,-23.22538058031747,94.4375408179968,-107.12419080809792,214.65784871345363
0.08363054022481184,-0.48735178662454487,0.11200589885171264,90.78988628296996,192.70757463057913,131.69482158469523,282.69009901546207
0.09546856230991144,-0.4631977196401792,0.15395306815188947,148.11430242084177,109.14649270393264,165.2375247485313,315.58670057168473
0.1265022887242172,-0.4217734815516242,0.2282214815073004,269.7395246502006,-57.85672022978122,-69.00191478072213,325.5715715124438
0.22412056878610567,-0.3605591871137904,0.36769052465202334,-0.12766540607413646,96.08292256634276,-106.64753348204786,208.2433671598822
0.09720256915992904,-0.48842723985690173,0.13640382983228808,85.49279199933615,189.96282834476696,141.71713475052604,295.64451611859243
0.34093777461810554,-0.3832235132082218,0.48718004161611805,0.9130681763800297,48.335400646190294,-90.64510565258549,164.14206246207885
0.28768721405916714,-0.36709691464002436,0.45764417756713366,-28.587255727254007,102.65277440000436,-108.17331541532127,222.2471212383782
0.10765349893683004,-0.4831422440363153,0.1648088075046985,118.13875505042606,148.92732238501318,167.551502662996,320.5659721055234
0.19531926433689667,-0.3764054457506224,0.3455690002295002,4.034753092468961,129.42911664141064,-122.98463588297372,248.23702972818438
0.14019481573535633,-0.41644718163517275,0.26035123434885726,164.16057924890626,33.01033530987448,-159.88049735042475,315.12648658910706
0.23676596578296788,-0.3677708021433179,0.413557029232305,-38.977790505176685,143.3044641005535,-112.77740676285232,256.50995963595994
0.11629199439848543,-0.4590451442490274,0.20658335960921753,273.20555321361974,-31.71727120194427,99.8747906462232,337.9904076217135
0.31195549653566373,-0.37713967286831585,0.48651808895142246,-14.16319216421805,94.67970084891071,-98.67312211274346,199.28613510408277
0.11493728307303593,-0.4827246212983719,0.18950133457020757,94.78301309599617,150.4981570509222,173.40735265202227,327.99264613394524
0.15248976032039763,-0.4111977476537713,0.2920882673806575,57.55686528106609,123.73178226867255,-162.46759936980737,301.14431041662647
0.2587087533366864,-0.3696827269900619,0.4532567615879309,-46.23856828934701,156.19037492944682,-108.59572359229671,262.93449998615097
0.12541303131409923,-0.45227007841366507,0.23752749043066437,277.1146081222032,-54.8978736083626,-78.13543644180837,336.6522309105069
0.21608871281465383,-0.3759664111027551,0.404129445290996,-48.50648082529747,173.65682577252613,-105.69176139741927,272.84665765009566
0.20311591824784692,-0.37892498118420354,0.3794061027304436,-31.926311153367678,164.35324600943608,-111.56444912237045,265.74113458927854
0.1644884467617691,-0.4047216185300268,0.3229927478241084,-0.672316507949219,168.81845315131753,-137.6775362556412,292.3678052300915
0.2823452600986416,-0.37419256800374756,0.48569083963206205,-33.03103878342345,150.03155812461642,-104.22277017031794,247.27186179888844
0.12178137347291494,-0.48650775870860163,0.21851569938245197,160.6629478303968,65.20498290998479,168.46524314959436,323.6199349277656
0.1329027651727638,-0.44870115923110937,0.2692723456055107,92.10833178167768,114.90286241110306,-180.3271250262551,329.6311842968533
0.1761223231530944,-0.3985485597747559,0.3546577764686291,-33.59173622466837,190.20713280493206,-115.31903759702155,289.12278921351793
0.23044442208830768,-0.3754581962303727,0.4474345821664037,-61.59199099837557,201.7412510755963,-105.75871079457494,300.78807454374174
0.12500299572358736,-0.4840092164871981,0.24687894589965848,251.57184172988138,-40.194048548418806,-97.80764277106832,322.04758788614123
0.25237088623497483,-0.37429210943422847,0.4842931088309041,-49.986246236968604,206.15100094583966,-105.2954098803796,297.5952699972601
0.13919253719045596,-0.44331466525865737,0.3004167105316969,-23.105607109071073,218.41140567468813,-129.07416516353862,321.3477239289623
0.1843375655563015,-0.39532102604320946,0.3906377024438367,-58.05615349015115,216.81561996640815,-99.94006625253226,304.84596349468626
0.204802960739474,-0.3844269534050968,0.4360782509953725,-72.294777849409,233.04657717314404,-97.81694813423441,324.17550584305053
0.1470351032596704,-0.4331102298777796,0.3315872257289076,-55.083604643552164,236.01107987670858,-89.44239683484673,309.41170209804653
0.1263002677285678,-0.48259226755259804,0.2772526451517719,-65.61788739509447,256.85823841816483,-43.572733988776896,304.6836165537519
0.22252518392515155,-0.37757974346365614,0.4821493378712789,-65.78091304293733,257.31238086064553,-100.77705585667778,343.4109465008673
0.15836899734380228,-0.419058481319732,0.3605729915594707,-60.88529311817412,230.45817190674774,-87.01431165587468,305.88228546868163
0.16428155936687017,-0.4122077243111057,0.3897519894086084,-69.65186332434936,243.10262784403992,-80.82128359041141,316.9843219801572
0.1818739441875612,-0.3963344882742064,0.4263452451175688,-78.56190257200444,253.65270695835707,-80.2209645579228,331.27830746674834
0.12564884063903647,-0.47985734623777676,0.3079101601942678,-69.91572499119562,244.73266946060875,22.26622510295075,288.75647950779387
0.18670742153011427,-0.38953894262775995,0.46449780421889086,-81.38521856539928,281.3448805176628,-87.3759548541565,362.7388628857524
0.15585697071100288,-0.4169956778285749,0.4104831125452164,-82.08564642540772,260.2511359183822,-55.22823572194992,324.0093577098818
0.14642174553442855,-0.43102265001984486,0.37782443882813865,-75.40228517172638,248.65898314244808,-49.662224367548575,306.0478061535015
0.13392969037836375,-0.45332273063297823,0.34418917080097766,-73.41861523811862,243.59635172233598,-15.499111115842446,288.67741476009206
0.19486410155987727,-0.38262022665854806,0.4853846113870925,-72.88598250952666,294.651574739787,-91.53906901054441,372.4863620749833
0.16191512111738182,-0.40858956666400326,0.4284091762431296,-81.30876922726065,267.46109611823226,-68.37671341901446,337.5197938573734
0.12432929214566252,-0.4758749735205539,0.3307958789960155,-64.46920283153497,225.84095805318267,51.6297491766952,278.7778613531878
0.16220697105957713,-0.4009491578845628,0.45962193776606813,-79.86647225793101,283.5810331181082,-69.93201909398789,352.3023337040913
0.13229346907755296,-0.44864507799903686,0.3726100672144344,-73.53348452027986,242.59161612788932,-10.020972028435779,287.05005147484184
0.13826625722791736,-0.43386411336736386,0.4035868574451591,-76.1443008911196,251.38528069269927,-29.888570633887042,301.35369638253746
0.1218614976000482,-0.47132184401512445,0.3537415603338828,-65.95833132515664,214.80765119893698,23.802405878681252,257.6059904012364
0.14326908418942544,-0.4221084800935885,0.4292877406581406,-74.84778481907402,265.94968672635724,-48.81677717943168,321.5375637301548
0.16591715961634673,-0.3906429125248179,0.4887101208043648,-73.59109519736377,311.9227097542864,-78.61157876326442,379.74399393211
0.14719516544800929,-0.41124754303299693,0.45299606803113934,-76.18197764913845,280.41209558381036,-48.587109518641256,335.97486022123894
0.11378597302121315,-0.4907383310223098,0.3463143692148554,-34.548326410650475,185.05881132714174,69.26413066953566,237.1210284194721
0.11671110173123472,-0.4696222297967207,0.3754577376949408,-56.31352868059378,205.8038272674763,27.91385640813951,243.83092235917692
0.12234302329081638,-0.4511821775375964,0.400705193030936,-67.50232667391266,227.79502667357457,-1.1951924997118244,268.0076828080728
0.12658887796225607,-0.4364683282990245,0.426686598260668,-71.5131902994883,245.961544374099,-24.09920709444225,291.44987180409964
0.13499558509195927,-0.4225314626409671,0.4453993986993869,-74.79741169629533,265.97155784729546,-32.950336148367384,315.4150922972183
0.14014924031541323,-0.40177529221192354,0.4866793187671178,-71.7092111325124,302.7625766468025,-63.83424811096446,361.5835837071751
0.10490646752869752,-0.4903487633791053,0.3718378810861018,-37.69226298446466,164.19434031940114,50.14825265929602,205.21668078407927
0.10666061577646244,-0.4701454507671173,0.3998819932345369,-51.31052582474949,194.6717419954843,19.328455870756855,227.24289704195454
0.12341909820141748,-0.4235463002865794,0.46213067919708134,-68.53315490152563,264.699678662588,-47.34318195143685,315.6383182011677
0.109698522785338,-0.4524591743916574,0.42589336543746686,-60.0246080144679,221.89838412359208,-7.107162875579605,257.51261185121444
0.11636205181985752,-0.43518649859841096,0.44783884052610673,-65.27143284180022,253.67449882066,-31.460134813745128,296.8804970995598
0.11295338582806395,-0.41460122859488246,0.4893472043205261,-56.64400966294933,282.9892407153963,-50.85786414433499,327.23182380834743
0.09287797813206607,-0.4901826664270206,0.397236422832123,-32.732447930978324,154.95458488229926,28.128020261965275,180.3550275886389
0.10692948241082532,-0.42780040642148576,0.4749901738527043,-55.64476963102172,266.0279407104821,-40.193191462137364,305.80508011139256
0.09318205494582749,-0.47061848117221744,0.42436039581264834,-43.514706102375555,188.27580763948714,2.085428313393593,213.41771917731637
0.09706563581677166,-0.45013573893079595,0.4503393997765072,-47.19752246368323,224.01305614204082,-22.779032988462035,254.0452119798711
0.07771866496225487,-0.4902020291054832,0.42204021397059555,-28.43193662333462,154.95319421286024,4.628575429157914,171.13958614498054
0.08577443371863468,-0.4308439879427083,0.4918262420803835,-32.68001611992687,259.3652433980401,-47.9484564751084,289.32946048882764
0.0779628136407932,-0.46992053398769024,0.44766172119275777,-31.26833735467524,192.10401633504281,-15.495727272471616,211.20792573679805
0.08229735584633496,-0.4488161839944203,0.47100496603324743,-33.24607403958596,230.90569353692814,-30.801741029701784,254.8444433015727
0.0602990022612851,-0.4899995781560912,0.44564985371517457,-16.44919474082191,162.6972702980527,-17.031147943305,174.03274649844536
0.06406566303340974,-0.44877337398699807,0.4904538117828486,-13.972355878796925,237.94587258491458,-41.06003240698366,255.33489421627255
0.06099285910725803,-0.4692301564308149,0.46915301875475246,-14.547600828437993,202.51293647097947,-29.798855904288175,216.40959990247833
0.04121199218328047,-0.4897886461293314,0.4679404549028983,3.0211556476142505,182.34105129940139,-34.5678826029225,190.50281151846875
0.042103910653457,-0.468748966006653,0.4898537318814079,7.7346070687734105,217.12002136104695,-40.379563032697455,224.52865541501197
0.020942108575276296,-0.4895511554558973,0.48946155325544305,25.15502580868763,208.3516186984433,-41.49313740059368,209.68338834082616
0.017599417161467457,0.4912515276280228,0.008870029388832029,90.00885024683375,256.52670029849236,69.32875547054537,255.4159289131985
0.03782846813845614,0.47293038901595913,0.010398149755053258,102.65434174582495,284.3438666535661,62.25162197317317,271.70942058908764
0.03731968452849993,0.49012058049871193,0.0280706386627537,93.01246145294647,250.59044207924103,70.82181129082764,251.36833666190714
0.060357605566798145,0.45798194499403216,0.017131864041747966,108.83307640442925,305.8209269172287,58.04998483894893,286.70027515563316
0.05858019265857928,0.4843964578917107,0.045320593394018095,87.97075702282571,258.82667443319525,75.6479746274162,262.9235082631796
0.08105317030593018,0.4404367695807792,0.016352033668537613,108.54213921298128,332.50415007274916,41.33340626504793,302.2830552228419
0.07532974545761151,0.4852249924182502,0.06779376297756294,80.63869615166338,252.2782321428514,81.61561224009533,264.1719941755623
0.09722602400112967,0.44426196530035184,0.039894732324390086,91.35346161896823,315.9140729557248,32.941431748759484,287.30249925742925
0.09316242820185022,0.4647518372253404,0.06750215205356205,63.97498255097898,286.6035460097249,55.31459594254426,277.62933507752115
0.10524793182458303,0.4211680011087384,0.013342067850387437,117.8002436320446,344.9722543188693,18.651901034122933,305.4318553803997
0.09203167108112514,0.48686707575957205,0.09613949725183708,62.21069097951249,247.03765620787541,94.89259733967941,276.6644275214818
0.11772808050993683,0.43499492384386806,0.053555667078579935,72.32421666310873,311.8249102561425,15.58421154064362,283.97478329931783
0.1303146181756184,0.4074600483825104,0.014005370587000616,115.38680010865912,335.9596374168548,2.911837960285065,295.70782959925975
0.10537253630637633,0.48573608341450386,0.12159139134773898,42.97316992301124,253.48924345355854,95.94672100759793,287.79779944195826
0.11484678105048257,0.45162943264646926,0.08226386508216212,46.16995647462082,296.283605762936,30.54743307980235,281.1328435914805
0.13437049540217433,0.4162986734841758,0.03817698227304795,87.12751722422115,317.7136702784982,-4.5520386229265135,284.4534064250325
0.13807126053474106,0.4236749335651943,0.06311650885702742,56.14637362536038,295.8280431737271,-9.275187175787275,272.6078902926719
0.11962328256448063,0.4605177589240941,0.11357812818202644,21.13205014247906,283.19360726085154,36.64331139566816,280.5154506227626
0.15917911254116235,0.39374313331858646,0.012136078042042737,116.36867363125846,314.83708444401776,-14.398834937302803,276.85531123653766
0.11471078418222191,0.4877796130573239,0.1513352845929327,16.90787691942586,256.49160476499065,100.68569916276284,303.5620549085364
0.15885056266856,0.4020437680963714,0.03636522595901057,91.4288682370306,297.58645006627154,-25.848960227071167,267.793665183434
0.13706754887752481,0.4328203071950393,0.08855716626856022,35.24637861513966,285.6979812964157,-11.397777140325221,270.5282840576857
0.12563500673176398,0.4636657167551721,0.14358471440297899,-1.9673804259514611,273.7980446298498,26.999058387228885,278.73778395461414
0.1882825470201253,0.38448581641679247,0.01188906754252279,121.12476394415424,276.6807849782859,-25.567314769808466,244.27777877237375
0.15893693417790022,0.4091324550678239,0.06240682526087296,59.54986496322137,276.5888104283987,-34.55738276934393,259.15124593871093
0.12520621742595855,0.4746474268187,0.17126786004821815,-21.39085113649989,272.91936178798136,33.36663884712463,290.03538017842163
0.1393562369863115,0.43793210169869135,0.11739981591620188,16.994211470298822,265.6219759754998,-20.95273739414853,260.0900861752797
0.1846324466848131,0.39072029261238195,0.03552689211127786,94.40163785831703,260.6069256063513,-39.463966765275465,238.53329392019745
0.1243096270182224,0.483527915156686,0.19612608718632432,-34.172155564480846,267.7193525812166,47.13284095834241,297.7489704715525
0.15837560181615545,0.414892269769339,0.08886693729483479,39.748409228229576,255.0616994888171,-44.15709317697106,249.6951269169832
0.14071592784984932,0.44151661625806365,0.14865762616967432,2.0374577361353943,241.6228280106039,-40.47071951779168,250.61341417524838
0.18134022783540954,0.3959720729961079,0.06072282903787355,68.3748769841372,239.1790589709509,-51.80623380711502,231.4726007594364
0.21914338918847975,0.3781466888899996,0.013281632861237845,128.16669668017835,223.90414018563516,-30.367361385804784,201.56696659467084
0.15927999576527602,0.4173263654453058,0.11634144173039708,27.840527036848925,226.54952630665954,-56.26902904639393,235.1406717108022
0.13822432920401762,0.4472748065793213,0.18041926528753255,-6.1585661432562375,212.06728534332856,-68.78954718197954,245.99288050255166
0.21110886433573878,0.38206355668152214,0.036036929835915034,100.33294002787036,207.9624626787801,-47.98559973262646,198.38712858237676
0.1256195545376413,0.48482569247242646,0.22584945894486896,-51.636702251851744,254.8208670418376,-36.46453116526074,291.1135837395864
0.18033605120150875,0.39876661392809926,0.08568524825691301,51.85513490834772,215.56209700773806,-63.08237732658606,223.41918012739004
0.20367420356108518,0.3853085711092706,0.059153224625789466,78.0898719397526,198.1175820825124,-60.96580367743463,202.55398161985778
0.1548753304651952,0.42100025823348286,0.15919886444236195,26.41413358033303,173.0449855743356,-75.48667065281072,207.76465642546648
0.16544826716614153,0.4106445934527319,0.13985494630636883,35.1225265414504,173.98958770595104,-77.52255406067447,208.38486929927046
0.13463743308112086,0.45177691799777886,0.20929545049576537,20.730187177781204,160.38633472679803,-105.84355246332719,237.56525647082495
0.24939069163505712,0.37485530078538287,0.01393538133204056,138.7519191016193,170.23397552287688,-30.593837321377734,165.58792021989186
0.1808969441554394,0.39838560198618994,0.1097919593012528,46.61303329489388,183.22056669318354,-75.11764015846188,210.07156910365575
0.12458865133812475,0.4860817526094875,0.2551205434346504,238.39864275862706,-58.41151911981163,-39.864255869930176,280.9600007169385
0.2270909697419668,0.37703628624764474,0.05027860591342354,96.92536583678137,166.56356427281872,-56.190279517731646,174.54442305751436
0.20376120571901946,0.38495528169186566,0.08141526270622419,67.9832510521195,172.7706000861621,-71.73956624772681,195.36015892167245
0.15141766302213444,0.4205470674359868,0.18924858110029233,45.37629377685113,115.27348708739872,-93.25342832611594,190.27587059628462
0.12990185213258798,0.45434620685515387,0.239191537930432,119.99889384550325,34.45941495349837,-116.31843276205532,228.12721785609253
0.12173734341841391,0.4886757949841076,0.2824164413707954,83.98310815741239,76.143790796655,146.83020412318592,266.70878058894664
0.2798122064695223,0.37454192805338216,0.013043670325115662,151.66952379594738,123.85092362494768,-23.178342023664385,145.4991125067638
0.25091349555378367,0.3720539075986349,0.04141359145471851,111.61074899353957,130.53405847550349,-50.43566772202864,150.19442537280892
0.17044582013502635,0.4004806623522992,0.16427297078716155,49.02801391509959,106.68302632935506,-83.07447584793431,171.05163830871533
0.1839229708518727,0.39303894321243793,0.133260946374506,52.036543211877344,136.00705730363083,-82.3954315172084,185.72938850934435
0.22838715445927016,0.37401694910639766,0.0753342271954999,80.3527206986341,129.02074007578466,-69.36844053976257,164.83836091908648
0.2034226065149241,0.3827941240406901,0.1044351642756546,61.08227993740451,139.9533809129234,-78.16062653267835,181.92463489077653
0.12335039168134487,0.4576469809471206,0.2686424266661675,183.20818384727284,-52.547150469984075,10.087760309183835,215.07858651956278
0.14440701760065805,0.4217589033776676,0.21928522891068403,86.38414821825188,40.7065135225139,-92.26827941840006,176.47421899379594
0.11543557339521954,0.48624553300300594,0.31093410885964734,14.053127434145267,119.67454522058253,112.51298085132198,225.4222662249122
0.30979322026178324,0.3773712180066433,0.012378558151390207,169.19320134694857,93.98963406179978,-11.88890986264768,148.26335402223467
0.1159796840469497,0.46547570531571647,0.29620771859717754,114.10833449965196,5.777375291033337,101.26656544225445,207.74887538735283
0.27963000950493266,0.36887404735475704,0.0390368995512584,127.16733956488953,90.69284268119172,-43.424995431488334,136.09095167915257
0.1681413992058931,0.39435619230479024,0.1900142709531868,65.58143191002063,50.9212440732439,-74.30864957908022,141.84405315406136
0.2527903017882575,0.3663527633701704,0.06952198592923838,91.12292629493867,92.05946334827368,-64.6329313076075,144.64388069783786
0.20311532548445754,0.3785638043448238,0.12657806440608507,62.81787149127703,103.08626233946435,-79.8525272740984,165.0044884778617
0.22698416656113007,0.36949601913637903,0.10065137879480816,71.49569051427343,95.19336190134145,-74.65517245145242,155.20205891659202
0.1881375332475687,0.38278677370130526,0.15747641706800983,58.61403260640441,75.67909921526241,-74.27315552428658,145.8649326671632
0.10678136833215673,0.4840146306270108,0.33704156930224766,10.807722607382175,110.0478366279589,94.18004596879526,194.029920112048
0.133302824169444,0.4243808576898671,0.25177429680612273,127.46034196796572,-32.736134482456805,-40.24421609961309,162.32419092576617
0.33931373113549435,0.3834008194499914,0.01183445763918363,186.03422322042627,68.613322383628,1.1671754430498726,162.96067311189137
0.12091898700176512,0.42929035539726174,0.2824419929582708,116.7660102389292,-40.07135816101058,30.24861712754489,150.54542179584365
0.10829835944993627,0.44203978555636,0.3112379703748587,70.4290237176604,6.711490709599943,76.35549970685852,148.40180173250175
0.09468961234499673,0.48553238205545346,0.3657709339553788,-10.902786212160805,114.96627171324535,59.797403132255525,159.1123984013031
0.30882266070823816,0.36870757601371057,0.03710278283561196,139.6181993434154,56.43897414192588,-34.41750420120031,135.47097561442564
0.0978717933506712,0.4543391645610825,0.3365781180664025,29.769068073854044,48.609215905483524,76.56463686712799,139.24235377000127
0.2789113456997655,0.36100129396252034,0.06533172848977875,102.3444693383988,58.28902031262284,-58.86460910386572,135.28328816179038
0.25037475465510517,0.3591844355154803,0.09709890998473485,78.33448288187128,62.81644801470334,-69.809727957669,140.64742347593017
0.22334946317100907,0.3637618851161558,0.1265178382679741,67.8174306249085,64.29470017974982,-70.27124845226317,138.51662743475174
0.08081498739644039,0.48625079082145234,0.3914540453330601,-17.11310829996542,117.39593851025444,30.91393312994608,137.66149806238556
0.3680360148951183,0.39269073358537226,0.011493588499268329,192.2164051517667,49.87034979441421,13.906514682928812,174.43758852042598
0.20881546251020022,0.36756844358999696,0.1471347887863365,62.53187505847204,58.35013192701493,-68.39997225312267,133.0484826956204
0.08339920905376608,0.45613266360339144,0.36232269568026126,1.5087092090518368,71.57815870334775,45.14857112770268,105.5125528278796
0.18942878455511702,0.3716671275117101,0.18065986291039407,67.20864983724364,28.088672697316127,-57.911277698791714,116.1004850689911
0.06556617997538694,0.4885578350431336,0.4160104275740044,-16.4969911818157,127.06712031835775,2.2859649432296543,136.12533142148305
0.06769291781136749,0.4567224692628252,0.3859464298903456,-8.558922678084059,86.6113844408593,19.146916958165146,97.03556307690232
0.04948538548891607,0.49163277735446376,0.43923685742528895,-8.99011593948422,142.34135455052967,-19.510644384123786,150.87592390149157
0.052517107416669095,0.46582119247282944,0.41178087855064566,-9.183726066965846,106.8652097017314,-6.3958685959546955,112.28827225649086
0.037367417362357214,0.47551663944988976,0.4375073218881799,0.5974521915654094,134.60381486903736,-27.06931766850849,142.2545902927164
0.030275821824506555,0.4910870203201213,0.4601616601802868,10.87683371789553,161.30998954453798,-36.94719608779293,168.76007288906865
0.010760260745187211,0.48907588058455914,0.47837280940004706,29.054625534752567,190.51614896512802,-45.45456354098971,194.43135280882103
0.0834732150988633,0.4288886855087769,0.3489957275060421,3.882827299730451,41.572784990893965,43.41196001823302,85.06319811248663
0.15254817649199565,0.3954154278561601,0.22935145165660792,89.4014292101578,-11.381128467563599,-46.21846542447837,124.69191802045451
0.008735504767099223,0.4687527488798556,0.46093490584639807,23.001733890724836,160.0480755290437,-47.2307918916504,170.7493077808097
0.024352341375279973,0.4610548162419712,0.43872327175919434,7.578457466014182,137.36716950187568,-38.565287229344605,149.49242509394932
0.39509784558742933,0.4051845777693748,0.011058483956068153,201.19540410002153,42.00826311757166,27.876010606800605,190.06217727285355
0.008533719445986465,0.4472918428610248,0.44231322709071885,16.794874299152653,138.63817210757438,-47.29422730325493,154.5458886644306
0.338414594859996,0.37188822754872974,0.03536877469602454,151.36414430504135,31.86482728352945,-20.761909636394712,142.81613970086374
0.03607323827636072,0.4459923479771097,0.41454756158002504,-4.287786845096363,101.9661843227696,-24.86012519579511,112.72433011293379
0.09788338214459569,0.4128925230555164,0.324267930737506,17.7312057698669,8.86249225226625,54.73433035165128,96.03820859609543
0.16815487099435494,0.38111960675251927,0.21237611792514413,78.2266076472246,-1.7385209379679623,-42.566158305348104,108.13906182769178
0.14028887567714315,0.397309350189484,0.2554346999495048,92.87112252324715,-39.56576594186632,-15.811056628971638,120.89243510237257
0.012941176440751656,0.42764257001418576,0.4230938440547524,3.3724894175162135,124.17019016592052,-48.0852040320443,148.1465750492281
0.05048312441495728,0.43265519167696137,0.39040247016845714,-10.4935076764312,79.23406037659682,-3.3773579337583612,85.1693189344162
0.30702069469532733,0.35826943637376174,0.061697631928938734,113.30563377252007,27.31154921112895,-50.65675998739576,134.86236305763697
0.11632305683343791,0.40097823203100874,0.29671112436586705,50.082416497525095,-27.971598992719976,48.09072011394517,107.84106892334522
0.4201135039570491,0.4211051745739637,0.009800345140864945,205.3912498713374,36.97740449707905,37.072520343944646,200.20283198385147
0.02584333928618826,0.414345991410254,0.40321456883084894,-14.994197252213986,102.61108101675605,-35.61060909790137,126.87307487668268
0.06406415032015206,0.4132175043733858,0.36698633832696886,-19.7282506005791,56.315893172671586,14.174515410579964,72.62539783213046
0.2757621745367998,0.35143628226554324,0.09182612756292396,84.34872972270077,33.13504432258176,-65.33524582630112,134.99564256570326
0.4446975782524733,0.44004128871987913,0.008876652146262463,198.31359976843606,34.251323730911025,47.91957601738934,201.488935233633
0.46763209214812335,0.4593287968169199,0.009402022804125687,186.80695015139875,27.381725525262425,53.88583374673696,198.09731981552383
0.24413050214317422,0.3510165545340163,0.12633547333914996,69.07516785295483,37.23808531776439,-64.14877490488203,126.21815552285426
0.48940985266262355,0.479212557900484,0.010254074928796743,169.08750872397312,22.397101518154415,54.335754462124825,184.8303771122499
0.012521101343002217,0.3941194520556909,0.40351027720783184,-18.45016087908715,117.04089194907954,-48.58395619278208,152.5765529451337
0.03965622211116254,0.39894256676780926,0.3843940236263826,-31.80567541818761,78.9944276775744,-18.699595079206727,103.98661590729807
0.368061115137933,0.3786198249037605,0.03420626524995266,163.272673709568,12.506161776736576,-7.291799060021162,157.89859591560642
0.2132636119329137,0.354317521223074,0.16731222513841873,66.74707798319002,21.010233910098776,-50.52918812807272,105.61168110419975
0.13259170288728328,0.38419412440403267,0.2771545562329094,58.23644552408493,-40.64342908848607,29.128049126318636,99.77790585640606
0.18794973399018527,0.35862574504200234,0.2046104198273327,67.7650603395382,-7.2896971196967115,-29.996866843218555,88.5362406775933
0.0131402462216329,0.37019227164016366,0.392229364864216,-35.70828206293561,117.50461682302296,-46.806569956951186,160.7820554577848
0.3364999776708251,0.3588221025384696,0.05839455683958356,124.17416423751412,1.1521242890158305,-41.489397037566974,142.97411158457606
0.06754786607382374,0.3851116000454301,0.35565662940728354,-38.52102922633723,43.41206122469303,24.94938569950051,83.11539912670868
0.09033164967634194,0.38404924635435295,0.333093163037762,-23.4758780509053,15.268797231204275,47.4201161673078,88.8183747481075
0.0412598255759683,0.37684488357138424,0.3754833626701292,-49.01813179927406,78.66154376760065,-8.798302122858018,112.59879215010716
0.3034233399917432,0.34634265796171126,0.0861771285355052,91.46340244265218,6.013144827524229,-60.91295229499262,137.77841806202332
0.3974119482133652,0.38911916412922987,0.0337212725097594,168.08125077663124,2.6117245393377573,5.572142702827453,167.06972306002152
0.1511195015014461,0.3678774802541672,0.2575386370422777,54.36140597253764,-43.17949216946397,17.958317017668733,90.19108801404585
0.16439537687195294,0.3672316826772333,0.23585807312161736,62.9805308177702,-36.50194970552454,-3.5289535499973113,87.37970188896473
0.27053795530472224,0.34068638769881304,0.11826844851777964,71.43748348442102,14.665946755730033,-61.90308990428853,125.56545436854141
0.11174046635241158,0.37234178874193424,0.30968590440366817,-4.286570283588798,-17.639031352628223,58.57678092685244,102.7015917865204
0.4449823380752724,0.42437641824624633,0.02573028050051773,180.1446752157751,10.737574196758516,35.81985816483889,185.69402092904113
0.2385541797768011,0.3404335305671229,0.15435923015023056,64.20412486033618,13.583538450524031,-48.61118570400578,102.58511146284283
0.4215749611096933,0.40532546468482017,0.02919194194601964,175.5458652338018,3.9121093384397625,19.10454572575819,176.74798947545946
0.012755652354638491,0.3443587512824803,0.38387087398399616,-52.10599092623017,124.95354045370416,-37.163253955085494,170.2426854258104
0.46697250243303706,0.43994111585435497,0.028129189162979604,166.94120990608275,2.8922708824507595,38.491529402631286,178.43678741373
0.3669518270342569,0.3631341209944115,0.05587508758184576,133.06689740571804,-16.611795216764136,-29.437425843025235,150.9732330452401
0.21052392137058074,0.34059851920092865,0.19364789871366464,58.62994112078059,-7.267602959404627,-24.390823452149455,75.50578777963065
0.48915357827744815,0.4579278466806812,0.030626719328693697,148.28967901657862,-0.9872726262756828,43.73754431160452,166.96144554405217
0.039909504262548745,0.35193443371751193,0.3709004072727145,-64.62040420806548,81.23314972908405,-1.180351587603262,126.60221133582282
0.13234828250163289,0.3584057570034172,0.2894063239413334,13.811022385184799,-38.40374683766069,53.510124960852195,103.8556090816628
0.3327537861119214,0.34435219076854223,0.0810548498721424,98.6818294027061,-17.972289683036024,-56.20340403712309,145.9832625723697
0.1825945649959163,0.3437593847490988,0.2312091945766608,49.149065440722744,-32.61115315095415,4.751383897201929,71.76107991565401
0.06497616158510489,0.35515475866713064,0.354584498138482,-66.4455311694813,48.520016697674734,30.596511226417864,113.14406043735212
0.01175887596723546,0.3180060636094764,0.37835301280318007,-60.20558173730987,131.53972368272684,-27.512011109010395,176.40172570166803
0.08785458795629186,0.3522633273452952,0.33674461840246184,-56.91452137929488,17.194956520126496,52.35042191789634,112.85066246588597
0.2983234414061614,0.33329730450540224,0.11047992934070568,74.9664036889478,-6.649766958517091,-62.19084440421392,133.28838501547662
0.265302363533386,0.32832269539043024,0.14402847071901032,62.90884898391678,1.6530893229192998,-50.17676795350437,106.81472822133571
0.4374716342020842,0.4034157738018625,0.041880247718844285,155.22312983678964,-12.54256646476901,15.570773798857426,164.09076580595558
0.03738147936640257,0.32756646946829354,0.36925075121548434,-79.77534856396359,87.40071772564107,7.150943826642093,145.35756743836234
0.3980520751036637,0.3714974591232164,0.05472646830700176,138.64402668273448,-27.548403460920014,-16.361851451470795,156.8554519336543
0.11069579098198634,0.3432855524349597,0.3181681639957236,-42.08743698631711,-13.274425599471343,66.57289081881487,121.1805493965403
0.15408951714877978,0.3458024378068681,0.2686284443233138,26.43624647382692,-44.33639309903728,40.35131823981742,93.38825058569724
0.23508314871916924,0.32606191622392067,0.18110088332606616,54.79672870459726,-4.997575741949333,-26.351788862396052,73.38091285122398
0.4633633481419827,0.4176290188505902,0.04607365924984232,143.89524193114025,-20.358788799806945,20.206370184222727,158.98033199001463
0.025501161716734888,0.3034348856452906,0.3717785690607024,-76.55605476294663,115.23913182470821,-1.8117612371384482,167.2512712888238
0.36334965170475564,0.34590118484140664,0.07698070730710779,105.78530788641356,-37.79935689321576,-50.17654550197744,155.47024316105413
0.2059671033212343,0.3246256893478447,0.22013482733107373,42.05777193460282,-23.414349789810245,4.116240627163641,57.902276728481446
0.06087725814051681,0.32726408437284515,0.35696029767763365,-83.30925090713328,58.22877377866061,33.121039310034476,135.9155128826206
0.32749611008288915,0.3288739163755464,0.10343973904737357,78.98164861719978,-27.98281706421801,-63.14936193059728,145.5843179417016
0.4881360517537656,0.4352767643746841,0.05001755016089441,129.6075626167609,-20.545651238002506,24.745782262544157,147.37766815545191
0.13471196485938602,0.3314486176356349,0.2994516701523071,-25.268202798871677,-33.82579176688566,66.17371800596442,118.5952450958395
0.08501572828924192,0.32355999934460744,0.3425944945189315,-80.90414672458456,21.686028845211254,59.03620879507571,138.65812745945445
0.2929381447143047,0.31901337639225863,0.13448346102926645,62.55836142317229,-13.136101329186204,-55.07269090881144,118.35067624875656
0.014551961970514171,0.2807065479819114,0.37401229838945926,-66.23048915637929,129.4302880117345,-7.671925104652928,172.87996916877404
0.17624728785938154,0.32720526329978744,0.2555117859449203,20.47948203175161,-39.55476648898437,35.404105075895984,80.95926033841623
0.4286691098549536,0.3818756775226712,0.057074059189332456,134.943528502673,-36.31590886214363,-8.2672770146225,156.95299172549693
0.26120157994147875,0.31342880524578887,0.16926216818231649,52.46747064897659,-7.293660513191867,-32.60478843673934,79.86194065946557
0.053141388774521126,0.30152110852887165,0.36193805613719215,-92.68672503657598,68.98534316353785,34.78484945934243,152.8848892417983
0.3945095271872286,0.3511253662888797,0.07463324222883351,109.09863201611165,-49.56767979803604,-40.91611626529907,157.44719164606389
0.23134532515430817,0.30923853806670126,0.207072199232217,38.27988128528459,-14.928882162199614,-3.0022906838547545,47.81984858581644
0.10999644171641926,0.3159844620898324,0.3270016269760064,-70.62190786637444,-7.491101346975185,72.94609991299951,143.10113583925707
0.16014153898680034,0.32086575345399854,0.27914803570990565,-7.848992902377148,-39.183373011326324,54.35933511083586,100.76807696163335
0.35798238627469803,0.327635739887041,0.09760190263651967,81.82766034709786,-46.521445274790324,-63.71593962436583,157.62586963371356
0.45911995791197596,0.3950441326553866,0.06220253729863806,122.7600357417266,-35.044042412560685,-0.38201889050807125,143.52894132655612
0.012326079171151416,0.2544538840258653,0.3742747365518104,-49.88847532472731,131.59559967476895,-2.385354312155437,162.44517658825373
0.04526879283476409,0.2786908011542064,0.3669594790212644,-92.17067216454448,79.4788209164312,33.54971127254616,159.7331571955448
0.3216037254042109,0.3124691515456654,0.1256610558783169,63.48139948965319,-29.5422399841965,-61.839254538364756,135.09365258326085
0.19961462353394116,0.30640376260577346,0.24680369769154303,14.507111275005895,-29.417689115617037,28.87100365813655,63.27105939200548
0.08000054296751608,0.29784764494451643,0.3504097655009135,-97.48070208826914,31.888197669008377,61.59717096410293,158.1469656352813
0.2884190952044589,0.3029120489729687,0.15812655725657915,51.15899983959322,-14.076353413887233,-42.40225086572548,94.49535325878739
0.42549409078002864,0.3599675249621039,0.07464916700867534,107.30692561236657,-51.88318792150008,-32.54078229574425,151.4951299460071
0.13682999816952135,0.30628304857466404,0.3098769892131831,-53.864395363728754,-29.01277552979377,74.71844485413735,137.5823267152022
0.4869241325632758,0.41177646683169394,0.06764705072372505,107.44785497709555,-29.328394784193193,2.2179902261878226,124.78472595317841
0.25809314206508027,0.2958568409912584,0.19389853409823785,37.55486173652803,-9.595018719683281,-14.384514468142546,49.83487127615081
0.03994865249546231,0.2572302032362831,0.3711418955935922,-88.3150634309666,86.16249655298051,33.88235768830419,162.10186635896426
0.3898411303023977,0.3296966113623273,0.09361978361390941,83.54807018992986,-60.36950571161742,-61.523024255115615,164.38905223079385
0.10699287902572802,0.2912900989198281,0.3376706170858064,-92.35055721542453,0.1783426340618064,77.02998474002729,162.31445688191766
0.026537443781845416,0.23672271556652047,0.37532397528708505,-59.70569393832585,111.50484369568863,18.534142669274686,153.90294818504202
0.07364512437401927,0.2745006845986247,0.3587414789147582,-106.31279963716044,42.42773121163248,61.84753285126041,170.55347134896533
0.2280802865852683,0.29011423672113473,0.23182522540182904,16.13264314338023,-15.881445986429185,16.297926932880607,39.567151388999385
0.3512335529850109,0.30874666280621027,0.11797717657976772,64.58452568918034,-45.942941375987374,-68.29628505549185,152.45414246733597
0.16646230282478064,0.2969651089438043,0.2891541755811265,-31.74344307861263,-34.9231706316382,62.89740837055378,113.96027503291741
0.4566353690653797,0.37243720511538486,0.07752289683674435,99.45337676564212,-44.51716571379271,-24.540245585844502,134.5615309358179
0.31647894279515854,0.29472372974838795,0.14762793749342937,51.225702581087006,-25.10323648988944,-54.28150836208829,115.67031798883173
0.28548712251096775,0.2844255731195931,0.1811682435337764,38.5116775378146,-10.551235759329927,-28.417446554875482,66.50922851839407
0.06624435705096826,0.25216776384081324,0.3670374789570006,-101.46345237215166,55.658572031269394,56.46969533604535,169.13455931378988
0.42249716783853336,0.33736587958855446,0.09101927734447472,83.57404927211223,-58.78644757190128,-55.83860781016516,157.1856862513256
0.015390473444647279,0.215873882060064,0.37899658842029854,-26.866178828683875,118.32726593620018,12.512967144458763,135.54282701794722
0.19614192343291542,0.2850690988086827,0.27019201303879586,-16.572502542237082,-26.7145986391712,46.71500144619228,84.21676761462172
0.13524000846383794,0.2830728836407267,0.32332529498464657,-78.30232685069359,-19.68022582396918,78.44793952269796,153.10060695445335
0.4861324574657538,0.38737037029525806,0.08339977377740866,85.33271470355106,-29.79043564097563,-18.575914521533917,108.38097065784486
0.2564587683550043,0.2755752926100074,0.21763116115837144,19.58500209930142,-6.278148358527687,0.40695697080833426,23.376095583973896
0.38179126631406307,0.3074077861160047,0.11234263797814233,63.527774162857675,-58.62172987045784,-73.57683260361391,165.64131189796566
0.10170646145721673,0.26839660897490475,0.3493730939184475,-105.91860982171713,11.832038706068616,76.4062541220638,173.56765005180765
0.056026434708117356,0.23023718168003676,0.37520020869857,-83.3555041399815,65.98429286287285,52.92042000167592,158.7574676398252
0.34504681566835105,0.2887663653501728,0.1382678363236054,51.642458243331305,-38.04500305224326,-66.15195454257376,138.59057147425483
0.3134375893997124,0.27510411718285144,0.16877978016505105,39.98684305974838,-16.234674135056196,-44.25774339179171,91.58563849928714
0.4556932886846855,0.34962414607833847,0.09144316210008831,76.07262989828334,-46.58309120190967,-46.724005720486474,134.35075658064468
0.2267660768539771,0.2687365434253073,0.25472927122487465,-7.640512308005173,-11.309959744134574,28.669475208842872,50.65269151156716
0.1647059277672943,0.27385163826831493,0.30725951303052734,-61.91522317895605,-25.904077454549324,69.85033128837058,132.43060709863568
0.09463438830710735,0.24655159073797997,0.3613304344952577,-110.86689600177095,22.231011126549916,75.49700041814764,179.86039280445002
0.013582508000635263,0.18841847544828697,0.38469888866828833,10.91075554121052,112.47359982606504,16.958560550362954,111.37756335812308
0.4274940697396537,0.318483925479563,0.10338532520621756,63.20859211780973,-53.83597213151273,-70.31074187951856,158.51604110477928
0.2845792902046832,0.26326173972102845,0.2034400310765989,24.10467225438767,-2.566071619195327,-17.23441252271884,39.24983042534094
0.1306382674157831,0.2610398487161502,0.3384579818656672,-99.48590394963306,-9.659099499674,80.69005919142744,169.004307636533
0.04714258416507361,0.20852253818265837,0.382870568695716,-60.40838551094501,73.36769351956934,50.32558460160638,145.12756045313978
0.40664949199070455,0.3017329535069619,0.11285373939612504,56.15893669674184,-57.288511168805655,-79.81851605025793,169.60556614811443
0.37327998150616915,0.2839437330345596,0.1312447623222587,50.69074440306686,-47.415311764625,-76.92471675320223,158.03011406060287
0.19468755550760047,0.2622885065938292,0.2913438883898585,-46.612992715364875,-18.91183238757516,55.11757260228151,103.74358687420381
0.48582358808679565,0.3619300309205501,0.09694374821930508,62.17023854719691,-23.142644702640837,-40.960516891355425,104.2727008312592
0.3417611609408882,0.26746833122085767,0.1574025212317324,42.09288416061935,-25.35523091042387,-60.441599772382524,120.17293529823209
0.08588102780329393,0.225197031916593,0.37318703005786646,-104.98594925750153,34.0847017766248,73.34231723536372,178.60436080968495
0.25693745813217855,0.2525014534565356,0.2405614908439083,1.0807116659534461,1.176773905110096,10.038550389235379,17.424077105915458
0.45732948710697074,0.32687812184619447,0.103464831564227,54.548540205273156,-38.94642293154659,-65.41466305012978,139.47785501902547
0.16038423888394004,0.25232147311968967,0.32603831224582747,-87.22259430944197,-16.370421398926723,73.94463661994513,151.16656007550722
0.12422535262154866,0.23988832270819524,0.35397981865596845,-112.68747365941822,1.796139104000261,81.0766190954553,180.6221185382408
0.31273955137486353,0.253374477133762,0.18880454414620448,30.03512224345811,-4.730728585899811,-35.89441278795343,70.2267967423193
0.4322183238012238,0.2976533752026877,0.11433746179526288,43.33172393904286,-44.88583706452701,-82.27821749606572,161.69870930825425
0.2260729811543596,0.2466084404603359,0.2769587403845388,-33.17584747642422,-5.112822676174886,36.88669388693357,70.98619685504512
0.04196925508981558,0.1850762420152188,0.3913614572328089,-29.996731672647705,74.27632971445664,47.13044971976126,123.72817816215512
0.40055466347866897,0.2784572754172197,0.12730717605757166,46.38597546976524,-46.25390484161527,-83.86860401508909,165.94710948691556
0.012155183403206427,0.16086073688226254,0.3929406507287904,49.55891848990019,101.23682622939597,21.90061498030905,95.53378762070452
0.370094354885659,0.2605017644511723,0.14798264277808398,43.11450784243003,-32.394888772896124,-73.84984823748162,143.75805906193278
0.07729954722316279,0.20350852037367684,0.3849137336089808,-89.32701463110902,41.34333662877355,70.79073233912476,168.56941364842137
0.4861256520616063,0.3354377312379651,0.10804339526044753,40.01289992715823,-6.943326051750134,-61.60858495025288,115.38595133910184
0.19061607220259968,0.2414848984526816,0.31293428204541124,-72.33244627104696,-11.451278231787953,60.36223773086425,124.36082510538525
0.2857989409273163,0.23928742676129064,0.22522366997157903,9.884988889907127,8.526886667862343,-9.515076700938765,18.9140866947649
0.11615658825860986,0.2195714447056087,0.36936142043032594,-116.01214412087654,11.64695545093106,80.67767792970191,185.66723075849433
0.34114662637139337,0.24474994269630285,0.17487236727226582,35.392101514574335,-10.07051340205625,-54.26124674265641,102.68048216010045
0.15436024027186762,0.2316329098954139,0.345316115736162,-106.67485857328178,-7.281081573456305,75.91017125643505,167.161280067915
0.45879587034577274,0.3019011726094313,0.11389671938086884,34.85106228092132,-22.69630439025042,-81.09777918772201,149.1685572112182
0.42895449112701545,0.27466348549679054,0.1244654121907404,38.146916470709705,-33.06425632401769,-89.24832444645452,166.44975805371698
0.0369973079730499,0.16052505583940943,0.4012560523650207,9.64641109613305,72.01314079388176,49.954267020482376,109.86611722580581
0.398308091882054,0.25374927962584154,0.1405563576371489,41.294076787437845,-30.628631796135565,-83.52991739741212,157.60658691174464
0.25896224367519394,0.22698794182859733,0.2640511829008165,-17.84177427314887,11.865777994530333,13.542362635351498,34.943080665924086
0.010802239809496406,0.133606615935915,0.4039428767533085,95.3583080396057,92.45611420927547,34.343465605879544,111.19038734265007
0.22170084751673286,0.22721475291925816,0.3002440601431377,-55.44228813067364,0.626100700458494,42.369229164261846,92.1651046253765
0.07102061397917048,0.17990695910188825,0.3978632288277388,-59.03467203819447,43.702231512186046,68.82021685442277,148.94156971823
0.3140016483619943,0.22967180440559704,0.20778883195213943,20.571515403213212,9.270547108459624,-31.45701106524368,57.33281540717765
0.36952720520222965,0.2358548142531973,0.16289158842787033,41.02745639902229,-15.57248889533642,-69.97219022910456,131.35058589332866
0.10638424898372795,0.1994497439030856,0.3845729835439709,-106.3279195321903,20.885559957464054,78.88805979018656,180.6447595633565
0.18429788348782833,0.22181038619265833,0.33555902906940704,-95.05999307897557,-4.224243948455481,64.20304766204556,144.97856361507914
0.4863687609746879,0.30743272417794343,0.11657596551980696,21.809453577948346,14.487432120560186,-77.71408994956933,135.97063766338945
0.1475671424742792,0.21118413067214128,0.36501179395598526,-117.74864368781678,1.8375430659175862,77.17640498720377,178.7542455966178
0.45756170318782213,0.275421674380984,0.1221806132416624,25.231347504895183,-4.101227721682548,-90.707252818464,159.50027463674974
0.4269738119751669,0.2488734213791449,0.1340778743264088,35.02133694961499,-14.531569458680167,-89.25978609597404,160.77469883283004
0.0324567454671047,0.1341024159559458,0.4140810965613336,52.98009347706156,64.71572286011431,53.76324704127779,110.62472707692993
0.061430695161862725,0.15817096855789928,0.4090082976194636,-21.740969090933618,43.28979126137632,67.97480146578401,130.95632356313027
0.39745737239208084,0.22716508638438176,0.1525079636644091,44.819952046420816,-11.879994231357998,-78.1806490776744,144.97953237185308
0.3420555263797298,0.22100313091401247,0.1908068923872106,34.968834681231414,4.195052846979152,-50.632362809200146,93.72635834595634
0.009109423194490374,0.1082625634450334,0.4166441929640076,129.4401797212422,86.308310687784,41.49953420090202,134.90276272137078
0.2895109860750521,0.21218596751268745,0.24713139002642007,-0.7073458569296776,22.475077645945078,-8.78540568845017,27.44225146997902
0.13506367557282206,0.19447188434148,0.382780563756062,-115.84764515375784,8.670969666846943,79.05078044590584,182.33883757186422
0.21415144765515753,0.20964902590146745,0.32541974511924154,-78.17390105229197,7.465390768964603,45.61014211869177,113.97958052483958
0.09863413748017502,0.1769975859614033,0.4012446143243904,-82.24459691648887,25.535824300775836,77.77862841554804,166.32793131592513
0.2538134602770655,0.20758490382943043,0.2898197199916337,-39.51042107803033,18.757119172339543,19.914392154880023,61.99801299084982
0.17823356396805834,0.20212678277096552,0.358701061505341,-111.34905429786718,3.5491571094313983,65.36756780050158,160.07860711964625
0.48599343277765616,0.2784925213926119,0.12233665110644304,9.047726450102044,39.23760581448981,-88.30584642952932,157.0356885580777
0.05251117038378622,0.133991269283512,0.4225347996452525,26.735240763487468,46.93451312056473,65.42989938193311,120.44098684227234
0.45593879784699926,0.2478867463098698,0.12862677777482748,23.395088644955727,17.265740479801252,-91.83690515717015,160.44797874861695
0.36985780612461105,0.2097750915437037,0.17648205181219195,46.91030263976765,2.6789246690755704,-63.79037613864101,119.53961781723078
0.42593969862152214,0.22024971387768777,0.14245536108349063,42.807816407722704,7.729390655619952,-82.88511772795405,148.89997485461691
0.3182547070005043,0.20382488550630676,0.22488094715298387,19.872244808968603,23.81618554455025,-31.82150918322686,59.385697589381536
0.12495591259431399,0.17654264307351367,0.4007833019847032,-99.63857528382147,12.449350442556451,79.08387201068817,173.45329051057345
0.027825536651741145,0.10684198570565812,0.42939191385644926,100.0601584835661,63.65628050648388,55.494034976305194,130.12864251031579
0.0749086713199777,0.1436460805257436,0.4230757572513775,-18.51394938074685,32.66124408300756,72.3909885644942,133.17498820132053
0.1509950879450077,0.1806058207723107,0.39233802284595926,-110.75372686487268,9.365219491047341,73.18659012184536,171.63962023118185
0.011850629575871685,0.08508012156510211,0.4338884132578175,144.81130389563987,70.24776887656076,56.54476341464604,159.1361761830748
0.2089373411495799,0.19167639197554848,0.3505604884477975,-98.15135118716312,14.75264924782659,48.65586105688596,135.65212605234268
0.3959011772400963,0.19868907792051527,0.16391410511368315,56.54098832634344,5.773560523550032,-69.8389846675145,132.42441573230857
0.34383428501702945,0.19740053712027492,0.20499206950039092,36.301150352899946,16.671161339804726,-49.25791660793618,90.93704332488015
0.4854377846787766,0.24917566009046008,0.12545056127119852,7.00248856873354,65.55430295224254,-91.67756826449035,170.59216803044075
0.24174168900282478,0.19453814945064016,0.3175856091201478,-61.57835601475122,20.3755818853981,26.89567877064941,87.36066455560336
0.09821029117153912,0.15395701836110537,0.4200433216255298,-54.53069622819842,21.541166511912714,76.6110494139553,149.06385266123596
0.45507600007390914,0.21876407334381892,0.1331290047428382,33.38667639684043,43.331291995852425,-85.3581637568009,152.9824550820556
0.1760237081058395,0.1825277978043847,0.3816881203763932,-112.67482316383368,10.800945174121232,64.58058462024813,162.9147829659145
0.04774753643668478,0.10717305146224335,0.44023148313082694,63.48850118069668,39.818699964850744,67.51267885804845,129.46881666679369
0.42234992479362427,0.1899329994929228,0.15056603572714564,61.39725482762541,27.226876241005293,-68.38767198372196,129.88414556650713
0.12559307743165982,0.15800885604178763,0.418805069361014,-80.97462068236521,9.909256926436967,76.24190374205264,157.78455104029248
0.3687300101304662,0.18286738394117816,0.1904016500195053,62.82673664514637,16.312064409389222,-56.607553996649905,113.14457130785455
0.3010940980105904,0.1823563819018424,0.26305781565165925,3.2085955304304505,36.351583698922056,-18.354291008392735,47.177698004242465
0.07434587874087706,0.11999831121412914,0.4427412249177032,14.513801976298105,20.45833458108723,72.40259591146372,126.72282102652332
0.485488772551678,0.22005223453768055,0.12582204881697295,14.731630769178167,94.3082387457906,-86.13417422013029,173.14455981782743
0.32839821321184165,0.17540281732818763,0.23654328702142707,35.47284363034211,34.693856403601416,-38.697459586976926,75.65564552427703
0.27971028802285447,0.18109383177946303,0.29154048420394796,-22.78176405600798,35.47565022478006,-3.0702238133426114,51.12736300965471
0.35406852060761745,0.1703179317063807,0.21133160005569776,58.66162095857088,30.55003144452524,-49.64164503872184,99.87619634491861
0.46110148677241575,0.1920984068372233,0.13199166126092304,46.498313092332936,74.57154401702381,-75.24099496420226,145.73667783246128
0.1525180444307594,0.1616256438279132,0.41355260902301055,-96.44928458395229,11.23908503747569,68.69123564370804,157.06126449018817
0.39163789880797106,0.16783010699892614,0.17697715683038512,81.24257233905477,22.142688436365574,-54.77071765538942,119.54588985759018
0.20429575220446056,0.17549526302545135,0.3750815905533024,-102.5697983978832,16.5575903861275,50.23737012511273,141.648883235625
0.44458324778295855,0.17599559450204383,0.13925643930357953,63.39167758618167,65.57106476727252,-66.32996178939038,131.758874532764
0.01591264339560794,0.06461122723746597,0.453354510875528,150.9597645440999,62.399992540934825,62.646772856302285,170.40122020312262
0.10042634209968704,0.13162964014856307,0.44177534286204334,-24.78007727674368,10.577846851352376,73.72470167497339,131.5068737649922
0.2400237422296037,0.17670242017321905,0.343173319390472,-74.87693252502174,27.766296094727437,24.620825596931837,101.36632804612692
0.41711895171762636,0.1581352085468284,0.15814778626011808,94.03026912447064,46.336726442333415,-46.89150957001692,115.01378126362683
0.48707938502802456,0.1912788799929816,0.12286592092988954,30.017832714564292,123.11437016444185,-77.93968233821488,174.88960547287294
0.17732732394382522,0.16267338302487455,0.4070919229907149,-100.88184425798484,14.870545617701389,59.64923734392296,150.24161288415277
0.04522471975561326,0.08177018514095452,0.460892683694378,91.95932902923678,27.037069532716544,68.58095564775111,144.26105844598314
0.2639212278171197,0.17235286714011677,0.32305428185393414,-53.11509662088386,36.5855410176424,9.009499035615157,79.6647542222849
0.46660099024909163,0.16358490226053563,0.12743245895361935,63.980705762839186,120.74133071376633,-58.558825805867784,145.71991057476276
0.12713729132543922,0.13937482921447025,0.44013374787430226,-52.26879120744817,5.311635647735301,70.63503706868106,134.18568540371757
0.44090028902111356,0.14603913371728405,0.1405463510816987,97.11277713809096,87.24687392389816,-41.31817180589851,117.01152179911045
0.22477331237292575,0.16371685964117982,0.37898704831633456,-85.14563657418597,28.945273534107454,31.455686987695316,116.27791174624167
0.0736535289597739,0.09799895673152477,0.4641061128844517,39.05043026120234,9.027584862442524,70.28534834240283,126.78325162959993
0.3652220055102936,0.14193923764056224,0.21399442366379293,97.01998519840522,32.07764351335889,-46.64201418394411,117.71199048443975
0.3895849254154524,0.13652156749567615,0.18685760185627673,117.61370035036778,33.89232304014543,-36.06141557533773,122.05223318249354
0.4884839747030569,0.16121861858152622,0.11655103425033438,51.479167411244354,159.43351284633974,-61.34794067880589,176.50029652578564
0.3409228762333536,0.14574030666955884,0.24411066182725136,63.022001300003126,42.30384511812122,-49.26262858172742,101.86135038349875
0.15405151520760713,0.14422440018205704,0.43698950548982496,-69.65089777136595,7.668048051462691,62.33771973301254,130.77502382622617
0.012353076631736737,0.0412266105202388,0.47139031034649176,154.17573732180122,44.01127803363505,65.36144302785108,178.15171634203685
0.24328177816456725,0.16234630346624843,0.36238800579959934,-79.83367870759777,36.49410424749359,24.85904249620645,111.68084202545867
0.4645050558761231,0.1355613127386364,0.1230988316085618,88.96136872601089,145.8721412021672,-40.45538386157465,145.34694910569542
0.20057014110698113,0.1592590768692365,0.4031187670440196,-96.7689490789353,22.813557595092206,46.02215369281603,135.81770061663735
0.4138982948451139,0.12744608087206655,0.16263727469882308,128.14384491322105,61.47597869652309,-21.324627498449182,116.98970843499917
0.3184958047692302,0.15040766758283197,0.2733066961080077,26.400950528716812,49.89819288998252,-39.57078014083138,81.03715224146825
0.10122303931411958,0.11190328488778256,0.46432854843030047,3.2218081059055663,-1.293407587989833,67.96129986849525,117.78130115242304
0.438055768672893,0.11487881761415374,0.13831936586248286,125.70467476709301,119.16150328366686,-12.294851024751289,124.4004067246375
0.29937623185978024,0.15127690270248348,0.30293796397584166,-5.571356125617299,53.27211088993535,-25.26457715289169,71.27869446912224
0.4880200474893771,0.1319793481654174,0.1076227148052922,73.45382399446764,193.95489159569217,-45.631318291341714,187.1199812692063
0.1287545453743471,0.12226122983284916,0.4634103739456993,-22.602666551348516,-3.68679737136884,63.04517457749367,111.19902729332439
0.18004745943741457,0.14589610823862495,0.43328545827093407,-76.71569918859436,14.694990972493393,50.70751437180216,122.23883920424409
0.4619593920237383,0.10494502393809896,0.11516465036553725,112.58940019314966,180.58022691488208,-17.381655156558985,160.8121194479405
0.24252972856753813,0.1507996659398932,0.38696259600659233,-78.97445335243383,43.51658330771273,18.108723694070044,112.03184058592285
0.22108911253211727,0.15261746952251076,0.402838924090322,-92.48912864134519,30.41860737182956,34.189265368883,125.69661364162617
0.3899033858253615,0.10340938348273555,0.19243776323925893,164.24302743361682,48.33262842121677,-3.205044922603385,146.30220351657806
0.4096142162887026,0.09693422832257971,0.1661656870798043,157.75782877909893,84.09079137949891,14.092918897889405,138.88356330670467
0.05028421118412335,0.06100321623126987,0.48587219906929,96.3470468679979,7.524691680000956,66.74867620727949,148.2583890691373
0.4868192982382061,0.1033385648619896,0.09562905621517606,88.17361643277565,224.47610661878937,-32.91860991301562,204.01505726306632
0.029724941448396713,0.04073886673640162,0.48827255762015587,124.96124817419484,23.57030217685751,64.47083939670574,160.2964931233541
0.4299366660968605,0.08947318275376041,0.14065849240221034,146.04643340059442,145.74354680841196,17.085783948590034,148.8663460363778
0.37034046523234704,0.1098843606744394,0.22120933550582347,150.36663612903874,34.54172704611051,-36.040777163450485,150.02048434035984
0.009418531389939977,0.01866317312068038,0.49072868024133515,158.9711974488419,29.106630176565133,63.330675574895025,183.0962727419722
0.07661743441063606,0.07913083852834572,0.4875205924072824,56.90123108476796,-4.887402616134722,64.84807510395991,127.10450252853289
0.28281533018203553,0.14824039465970495,0.3350193261511269,-36.71683044469658,54.05883795841157,-13.791222704128163,82.6192850229249
0.15646515904700836,0.12917540295481905,0.4616860045903666,-37.82662808982354,0.5221703445188268,53.30706643679484,99.87896872829008
0.45897947090705105,0.07365418485550801,0.10260110100428528,121.09366727441379,219.39019077168035,-2.830956028132846,190.40223799190065
0.48954585183812654,0.07934265134766723,0.07918384652104897,89.90282405056637,243.9778347524655,-30.31533553942623,220.06922542550876
0.4403934067752416,0.06885579209497969,0.11972493838287789,136.0633162091466,197.35748088131368,14.481160235851284,176.7461455183188
0.35132200577215905,0.11500644856028426,0.25195796781230256,107.51066997283115,46.173987965636826,-61.66521675612863,141.89496754253025
0.20526245375109115,0.1440226307249797,0.4307261684648402,-75.03912344103273,25.682147701772838,36.734064487009796,110.75099588809923
0.4760254859468661,0.0639922432121017,0.08004683056573944,101.59847830361358,243.91030601204116,-19.901440547916227,214.99249811738088
0.10329600829937918,0.09482756476850487,0.4878799933974828,24.595877044144352,-13.549109479851424,59.93546746378716,109.08055989221825
0.2591744151487555,0.1462832082588794,0.37761187983995287,-65.22287866222797,49.29211986377532,5.430165810202219,99.93583459755759
0.4922073798947125,0.05536627452644953,0.05907031930165845,80.28938360590709,259.9481402855988,-29.81612980872069,236.25272399495572
0.42210571683508546,0.06386927169315078,0.1401002559424524,150.16203592692915,183.4870819761121,45.129337357734855,186.47606752891707
0.49068049228690813,0.03334799894536979,0.041451120135634976,74.89054691371092,253.26022372911132,-34.40661572151975,233.09651196450218
0.47233414799707213,0.03747410096130668,0.06320759853251068,99.10163631799588,256.54453420643745,-19.770378218360698,226.6822727707161
0.48967638463231866,0.010952326107551515,0.02119853353632809,63.417855935193955,235.47126370278227,-39.376820459045135,221.7815586815386
0.40447898326066367,0.06394236829544452,0.16685002973839735,172.84029707995876,140.14610030854874,63.50869612450857,193.36976900425887
0.4552101979157107,0.04111968930826367,0.08444589935394113,114.45038498116006,255.75247728787218,-3.1798532465929377,221.96302659620264
0.46952447401949293,0.012037349542385422,0.043002762956079375,86.29278958309479,260.136715156973,-30.489195891774138,235.4960859148092
0.45056015478787126,0.013014372932065612,0.06508856913772879,102.79213280708117,274.29193416199126,-13.671766888161903,241.18040222745483
0.3336620749467839,0.11963138098679756,0.2828986498735338,58.91360022192498,65.18487216344417,-63.38060435528715,126.21769834790703
0.4379665980463908,0.04035100786864592,0.1045346045824246,125.60118480693005,249.1119733082617,15.566426425275122,217.4180644939403
0.2426004201116349,0.141579302346316,0.4110715526706218,-73.26199173906846,46.082042276373144,14.474860886519721,107.21707442175489
0.3886087064981265,0.06874383529300314,0.19585394112272497,202.86565480131495,79.23640041520635,55.84932831967723,201.78200914767518
0.4326950918946411,0.01300061256848444,0.08773771450133112,110.64074160169108,282.43431292085586,2.04072776031769,246.5243734223773
0.42048690392032806,0.03879500430878375,0.1277393452256985,132.42324995278352,232.9506241693702,41.532391718557705,214.7758142424567
0.1842258448098255,0.13268445491040162,0.4596557033678488,-44.84167158989551,11.116252505392424,39.89463194857024,86.06719990700574
0.13076212423853983,0.10743153810273919,0.48769189858036854,5.9747795346901995,-15.425464058183863,52.90079212164823,93.60175265538531
0.31777989926710715,0.12292878770893544,0.31373887654714805,16.267964932955152,76.19147880726864,-53.81044266521479,116.26262959330822
0.22973132547013037,0.13969385023322486,0.4277230645646036,-66.26071898781616,36.488772339111534,17.685528269884195,95.27864088201899
0.41636945977518813,0.012648213375455152,0.11200589885171264,109.98196920744502,290.87265814386103,25.929473560479025,258.3199602673548
0.4045314376900886,0.03680228035982078,0.15395306815188947,131.8030360681319,229.34186268297353,74.54278997192236,237.5113873205473
0.3734977112757828,0.07822651844837579,0.2282214815073004,213.2901699345478,29.888816570100104,-18.634721332040613,202.61491973361345
0.27587943121389435,0.13944081288620955,0.36769052465202334,-52.394354980255216,60.89775067983533,-7.515181331386745,99.06481055152541
0.40279743084007097,0.01157276014309826,0.13640382983228808,103.81010426227301,301.5133415146197,41.526995142312536,274.8821118512546
0.15906222538189446,0.11677648679177824,0.48718004161611805,-6.082110225057313,-8.108031628860473,42.51738603713555,74.00407181974377
0.21231278594083286,0.1329030853599756,0.45764417756713366,-43.458939164664045,24.269821539349635,21.92628606501159,70.53176866136182
0.39234650106316993,0.016857755963684738,0.1648088075046985,110.1967047280234,274.36754810263227,78.89601773203671,275.4273231570707
0.30468073566310333,0.1235945542493776,0.3455690002295002,-14.578186701433651,82.27687059625148,-41.22819057438515,115.24211746357962
0.3598051842646437,0.08355281836482725,0.26035123434885726,158.4549365575857,55.22245867576022,-80.88723044398246,197.5739047099511
0.2632340342170321,0.13222919785668205,0.413557029232305,-57.26817537614188,65.44516316022616,-7.269271970041312,107.0941890033465
0.3837080056015146,0.040954855750972574,0.20658335960921753,221.8395150407166,118.48044075339551,105.12566958503314,264.8036271903772
0.18804450346433627,0.12286032713168415,0.48651808895142246,-9.671706963692365,3.3131451952691577,26.840491201804255,47.93535772262135
0.3850627169269641,0.0172753787016281,0.18950133457020757,98.47002313433589,278.15660372025866,92.84634050039341,292.4699698753848
0.3475102396796024,0.08880225234622868,0.2920882673806575,86.87527855812277,95.07722356349223,-96.0761361097758,189.78673286833015
0.24129124666331359,0.13031727300993812,0.4532567615879309,-41.73330986408273,45.45704999615164,0.9651737886878813,75.55051542436875
0.3745869686859008,0.04772992158633492,0.23752749043066437,277.23544938842974,26.449375281307212,-1.0389334578395175,265.00867449275887
0.2839112871853462,0.1240335888972449,0.404129445290996,-51.770370226271204,78.47588204845769,-24.084561149363935,121.00230998374712
0.2968840817521531,0.12107501881579648,0.3794061027304436,-41.23975296625266,88.11171818592368,-31.932156106504745,127.1105242638992
0.3355115532382309,0.0952783814699732,0.3229927478241084,32.581756818935716,115.76255874793797,-82.075007736672,175.7831449039961
0.21765473990135842,0.12580743199625247,0.48569083963206205,-9.713043675085224,21.537351453280408,7.319546628934319,30.465082453967476
0.37821862652708504,0.013492241291398348,0.21851569938245197,143.8285188191822,240.25833036900565,144.6174365908135,326.4924459229833
0.3670972348272362,0.05129884076889064,0.2692723456055107,185.23567719713748,95.72817449848341,-124.19572330890591,268.3609497190096
0.3238776768469056,0.10145144022524408,0.3546577764686291,-5.657013081313089,118.65831310529398,-62.686875165576254,163.00914590756233
0.2695555779116923,0.12454180376962733,0.4474345821664037,-40.16567990989073,68.40149032002894,-17.878039895661455,99.9915547319431
0.37499700427641264,0.01599078351280194,0.24687894589965848,346.0771343401085,24.69613142286549,-4.4126023321314065,334.50101435754954
0.24762911376502517,0.12570789056577153,0.4842931088309041,-9.009984048741105,44.08402437189363,-14.113249361638886,54.94841941681997
0.360807462809544,0.0566853347413426,0.3004167105316969,77.29591950432606,174.03346889418572,-123.54887093910523,261.9221277319696
0.31566243444369846,0.10467897395679056,0.3906377024438367,-36.98784467313222,119.2632283308437,-49.29684458258835,165.20788330941073
0.295197039260526,0.11557304659490318,0.4360782509953725,-40.91507447227992,95.55508709821608,-33.40756354022511,134.3973861328081
0.3529648967403296,0.06688977012222042,0.3315872257289076,21.134999689357493,189.18502704211096,-95.46389353397025,244.0887176561484
0.37369973227143216,0.01740773244740198,0.2772526451517719,61.53675953962983,296.8235488153231,-119.86463725740496,341.6548351060766
0.2774748160748485,0.12242025653634388,0.4821493378712789,-9.432749090309969,69.38043280459576,-34.5627748722697,95.60766520834103
0.3416310026561977,0.08094151868026801,0.3605729915594707,-9.680162771193169,168.91282359041332,-76.86780948159824,219.05782696484002
0.33571844063312983,0.08779227568889432,0.3897519894086084,-32.8538890582719,152.627305823835,-59.04064034964628,199.61529180096335
0.3181260558124388,0.10366551172579357,0.4263452451175688,-45.88045701056819,125.66282512278423,-45.13873304650607,172.55186310886856
0.3743511593609635,0.020142653762223264,0.3079101601942678,8.61890526380332,323.8982637229798,-54.700556331980025,333.4204176556274
0.31329257846988573,0.11046105737224005,0.46449780421889086,-28.51449651377163,108.96937509497546,-43.62281533763825,146.64057467229853
0.3441430292889971,0.0830043221714251,0.4104831125452164,-44.29036887428785,171.4335662166563,-46.63697215097329,213.23456989940325
0.35357825446557145,0.06897734998015516,0.37782443882813865,-25.607513529719736,205.5612254036834,-65.10130360649546,246.75820795496267
0.3660703096216362,0.04667726936702176,0.34418917080097766,-0.2453141296981478,266.17226912615115,-70.88977513396839,293.23900406489366
0.30513589844012273,0.11737977334145194,0.4853846113870925,-10.676727355218373,88.07729845972591,-48.746628605026636,126.25641256541861
0.3380848788826182,0.09141043333599677,0.4284091762431296,-44.67028482493141,150.27790328358765,-51.04234617321859,197.75692810322278
0.3756707078543375,0.02412502647944608,0.3307958789960155,-12.768859895676275,318.53555594504246,-9.43565297239323,325.5186242151938
0.33779302894042285,0.0990508421154372,0.45962193776606813,-38.07373849154831,135.4788759507795,-46.38833757139538,177.25111078241963
0.36770653092244704,0.05135492200096315,0.3726100672144344,-30.101231567853702,252.95129478749013,-47.97622484764918,281.7973414144507
0.36173374277208264,0.06613588663263612,0.4035868574451591,-42.35605060765149,216.1118017151851,-42.553455892472286,251.1660369142259
0.3781385023999518,0.028678155984875543,0.3537415603338828,-15.876232169830171,306.5797165158752,-22.469552041973053,317.2146755617279
0.3567309158105746,0.07789151990641155,0.4292877406581406,-44.57268260963283,184.7387464269271,-42.12515365679289,222.87443928908857
0.33408284038365327,0.10935708747518208,0.4887101208043648,-15.986434987622307,112.51145327270619,-51.414651315354696,150.4774048284172
0.35280483455199074,0.08875245696700307,0.45299606803113934,-47.701786294242716,160.41300194501457,-30.632144431393357,196.14984874750505
0.3862140269787868,0.009261668977690192,0.3463143692148554,-6.138492792239239,339.60650573068517,24.964091163838027,345.4338568509186
0.3832888982687653,0.030377770203279312,0.3754577376949408,-20.85919438175393,304.1026964832239,-5.859717485480617,315.21405762372274
0.37765697670918363,0.04881782246240362,0.400705193030936,-36.693910628913365,256.13754117389897,-20.91532177013132,278.68247733691925
0.37341112203774396,0.06353167170097553,0.426686598260668,-44.30376487380725,217.1858843284708,-24.990916572973376,246.2281909534404
0.3650044149080407,0.07746853735903289,0.4453993986993869,-49.5362649678953,187.7446001008194,-29.68187472743756,222.81176749192974
0.3598507596845868,0.09822470778807647,0.4866793187671178,-23.928786047070204,134.76401344773973,-37.54394972283609,161.82493580791876
0.39509353247130247,0.009651236620894675,0.3718378810861018,-1.638453612003901,332.83013474328754,37.35539973686089,339.86789717245955
0.39333938422353754,0.029854549232882704,0.3998819932345369,-25.113367391849593,292.5683510249697,12.202554973962176,306.6284474301484
0.3765809017985825,0.07645369971342057,0.46213067919708134,-40.98213424926616,180.1293849603441,-29.314663317958832,209.96729685080751
0.390301477214662,0.04754082560834261,0.42589336543746686,-36.44877088746504,248.01367346213135,-1.2473960915865092,268.111463155523
0.38363794818014246,0.06481350140158905,0.44783884052610673,-40.423052189156515,200.18079891300573,-9.373099588373105,223.74507652939462
0.38704661417193603,0.08539877140511756,0.4893472043205261,-28.060848370201125,154.14282773960682,-17.2608376569874,172.53002817259167
0.40712202186793395,0.00981733357297945,0.397236422832123,5.039573034849692,317.4881367654083,47.81704806935966,325.7046513152966
0.39307051758917466,0.07219959357851424,0.4749901738527043,-32.410371397405065,176.8365544506115,-6.6815514045762825,195.4146027245138
0.4068179450541725,0.029381518827782577,0.42436039581264834,-16.28004435318179,276.47769812189745,27.078558594972915,288.8005740952723
0.40293436418322837,0.04986426106920404,0.4503393997765072,-30.970733972753962,227.65131071223084,11.453733222706777,245.4147465590359
0.4222813350377451,0.009797970894516764,0.42204021397059555,11.503150410690733,302.7210603001611,54.32835950185936,311.6806520591197
0.4142255662813653,0.06915601205729169,0.4918262420803835,-14.957713730318615,165.41713375245766,11.42143192321894,174.5055036186707
0.4220371863592068,0.030079466012309763,0.44766172119275777,-6.707391178702883,256.89001986084395,35.849126015413596,267.6116827828101
0.41770264415366504,0.05118381600557971,0.47100496603324743,-21.1589275827952,208.6219262065502,21.865348258437976,223.20238552211134
0.4397009977387149,0.010000421843908832,0.44564985371517457,29.174353003062375,281.9206971451681,59.523631323178726,287.63650059106794
0.43593433696659023,0.05122662601300194,0.4904538117828486,0.06752266256006045,186.4669570708778,32.904770965083394,194.95002372391605
0.43900714089274195,0.030769843569185096,0.46915301875475246,7.7159349771007175,235.126546259713,44.88725494839689,244.07868451929335
0.4587880078167195,0.010211353870668651,0.4679404549028983,43.942718947157985,261.6031592568092,59.17894671426778,263.3971613008239
0.457896089346543,0.031251033993347,0.4898537318814079,25.543543707525476,213.5460645804833,53.039119118580246,221.8988858903834
0.4790578914247237,0.010448844544102743,0.48946155325544305,52.30741399145843,242.59800823037875,63.07114827866536,246.6456850248535
-0.017599417161467457,0.4912515276280228,-0.491129970611168,57.78167453673544,226.18252907162793,-45.53544007999695,218.28532245350692
-0.03782846813845614,0.47293038901595913,-0.48960185024494673,71.21663060866487,235.19676011018555,-49.53352490930743,225.8320480496076
-0.03731968452849993,0.49012058049871193,-0.4719293613372463,77.8273084694854,252.21856198205822,-38.97853883500825,233.66595942911937
-0.060357605566798145,0.45798194499403216,-0.482868135958252,71.32273173859465,263.13308544033464,-55.766558180836384,254.73183798969092
-0.05858019265857928,0.4843964578917107,-0.4546794066059819,87.64106436989991,279.05526202983333,-31.972879002479456,253.30394829775858
-0.08105317030593018,0.4404367695807792,-0.4836479663314624,64.39834352907374,280.99481962236297,-68.6129435350601,281.30560328866164
-0.07532974545761151,0.4852249924182502,-0.43220623702243705,92.10124941547458,303.44571644138347,-22.839982236517223,272.35860133688453
-0.09722602400112967,0.44426196530035184,-0.4601052676756099,64.7429774555685,308.7208773843847,-68.3649888256455,305.8333525788643
-0.09316242820185022,0.4647518372253404,-0.432497847946438,80.10507244313528,318.72018935269,-38.02804757949245,294.62972538946565
-0.10524793182458303,0.4211680011087384,-0.48665793214961256,50.55156184913028,301.5155075447615,-94.19655682610794,323.796163999704
-0.09203167108112514,0.48686707575957205,-0.40386050274816293,90.47874537152282,323.98991334393554,-6.394152565790744,289.7659779914334
-0.11772808050993683,0.43499492384386806,-0.44644433292142005,58.48980685454072,333.1693586757898,-81.40351272354042,338.8443053656284
-0.1303146181756184,0.4074600483825104,-0.48599462941299937,41.20111156608734,314.27230622935815,-113.5949927648437,355.28539633602725
-0.10537253630637633,0.48573608341450386,-0.378408608652261,82.56733474807531,333.5665989365311,-5.49885672943439,301.05323106438885
-0.11484678105048257,0.45162943264646926,-0.4177361349178379,68.57931807236,343.83718280227424,-60.381022616494974,332.0912755505844
-0.13437049540217433,0.4162986734841758,-0.46182301772695206,50.90164874713143,323.75964106430797,-107.2641947177807,354.1866822802278
-0.13807126053474106,0.4236749335651943,-0.4368834911429726,54.824062538651766,341.7776772176485,-99.565549202368,361.6903558174383
-0.11962328256448063,0.4605177589240941,-0.38642187181797355,71.1160765954324,353.4290619900792,-57.381261061717595,338.69298387931707
-0.15917911254116235,0.39374313331858646,-0.48786392195795725,27.524385827856676,317.9630594722775,-133.22993053317964,382.5663396665717
-0.11471078418222191,0.4877796130573239,-0.34866471540706734,63.653301081344054,351.1317446335777,2.9049977553354953,324.06768923092136
-0.15885056266856,0.4020437680963714,-0.4636347740409894,37.26843436616757,320.341125276859,-126.45297279898892,374.2189513248764
-0.13706754887752481,0.4328203071950393,-0.41144283373143975,64.58668913212841,346.51274055834335,-99.08092067966018,362.3720403890561
-0.12563500673176398,0.4636657167551721,-0.356415285597021,72.94744130887374,358.92372430246087,-70.81073205867526,350.7242236741011
-0.1882825470201253,0.38448581641679247,-0.4881109324574772,14.67635609449175,306.63917720356585,-139.84632022089255,385.24487602705887
-0.15893693417790022,0.4091324550678239,-0.43759317473912707,51.58728636615198,328.07579304223134,-119.86195335116324,369.4199477463415
-0.12520621742595855,0.4746474268187,-0.32873213995178185,67.65792284702088,360.67016478769256,-67.55174593374511,352.0626126779418
-0.1393562369863115,0.43793210169869135,-0.38260018408379814,80.24557846226095,343.9557483845193,-109.95749944746106,365.26146356983406
-0.1846324466848131,0.39072029261238195,-0.46447310788872215,24.61878916384856,309.0739687449401,-133.87788334050612,377.21829092221805
-0.1243096270182224,0.483527915156686,-0.3038739128136757,53.99006479319598,365.2043862987381,-51.449756785906466,352.8639891079422
-0.15837560181615545,0.414892269769339,-0.4111330627051652,70.53391592668986,327.0251684793814,-124.79966440424636,368.21053363764923
-0.14071592784984932,0.44151661625806365,-0.3513423738303257,105.59301496740672,329.60892815504894,-129.43094924973022,367.7562259383503
-0.18134022783540954,0.3959720729961079,-0.43927717096212643,46.08951380006075,306.0846221984114,-130.9055258870785,364.8472528787738
-0.21914338918847975,0.3781466888899996,-0.48671836713876215,-3.736805315027686,281.0412966934028,-128.51246879183049,359.9926869774044
-0.15927999576527602,0.4173263654453058,-0.38365855826960293,96.79917941436904,314.63198475937764,-137.8338871538576,367.2897907246068
-0.13822432920401762,0.4472748065793213,-0.31958073471246745,137.1025466640067,303.951273148209,-154.05857118093888,375.11747653598326
-0.21110886433573878,0.38206355668152214,-0.46396307016408495,12.830725476412624,282.94182221771166,-125.72736691468936,352.1540370397045
-0.1256195545376413,0.48482569247242646,-0.27415054105513104,87.25301071139371,326.742143113897,-125.98330792646104,365.34868534068227
-0.18033605120150875,0.39876661392809926,-0.41431475174308696,72.61338052319581,299.81080125445794,-136.04409937672048,359.04447455581504
-0.20367420356108518,0.3853085711092706,-0.4408467753742105,38.81755771629451,285.878044999636,-129.35996391542977,349.768455811671
-0.1548753304651952,0.42100025823348286,-0.340801135557638,152.5827208980491,279.4377658732984,-159.75826018963107,367.8283324741937
-0.16544826716614153,0.4106445934527319,-0.36014505369363115,143.82294223079256,274.1651033995297,-155.2999651418451,358.85170798707617
-0.13463743308112086,0.45177691799777886,-0.29070454950423463,208.6185819454273,235.55283028255803,-182.1299362136065,386.49720847087946
-0.24939069163505712,0.37485530078538287,-0.4860646186679594,-27.82381894833568,244.09127643936728,-99.9496493286749,311.63450518189046
-0.1808969441554394,0.39838560198618994,-0.3902080406987472,102.09931082371435,281.5992130487758,-143.15824163470012,349.93448947396496
-0.12458865133812475,0.4860817526094875,-0.2448794565653496,380.9970336206644,31.760743304200183,53.69920756444811,377.7797640658409
-0.2270909697419668,0.37703628624764474,-0.44972139408657646,10.648412906462706,261.67493843492775,-113.42415375985776,323.10347456974364
-0.20376120571901946,0.38495528169186566,-0.4185847372937758,60.62585277431916,272.38283892360255,-130.45788234606067,335.2793466238519
-0.15141766302213444,0.4205470674359868,-0.3107514188997077,223.6217547904858,216.44477645403626,-172.29460557171868,370.82281897325333
-0.12990185213258798,0.45434620685515387,-0.260808462069568,362.43987718774736,81.5431377543564,-125.87633558401846,394.95824923361727
-0.12173734341841391,0.4886757949841076,-0.2175835586292046,111.95885784880338,291.76850933980256,164.14238851188742,381.8713801143115
-0.2798122064695223,0.37454192805338216,-0.48695632967488434,-53.35422634907434,200.3236782865972,-64.4941712870047,257.18253987383184
-0.25091349555378367,0.3720539075986349,-0.4585864085452815,-13.167154537673198,234.33684363380414,-93.15067677764434,290.178954146005
-0.17044582013502635,0.4004806623522992,-0.3357270292128385,189.4691991579279,229.85054314729646,-157.33046930664813,345.5993069947785
-0.1839229708518727,0.39303894321243793,-0.36673905362549397,140.72042207739264,248.89988216883506,-146.00657556520292,332.68882215115025
-0.22838715445927016,0.37401694910639766,-0.42466577280450013,38.563105996168034,241.1343779317231,-108.43554532434467,292.5898379275222
-0.2034226065149241,0.3827941240406901,-0.3955648357243454,95.59895773114228,251.33168030977043,-130.48875834927458,315.2168709488577
-0.12335039168134487,0.4576469809471206,-0.2313575733338325,385.02986424863695,57.34986512341741,96.26450397635344,396.55536408840953
-0.14440701760065805,0.4217589033776676,-0.280714771089316,318.00262948993606,128.75449022150562,-149.01378406747742,378.6481852484766
-0.11543557339521954,0.48624553300300594,-0.18906589114035266,52.120879396492136,347.09099075422716,116.0477506509192,381.44369906516795
-0.30979322026178324,0.3773712180066433,-0.4876214418486098,-77.27810488643007,162.17585761163645,-27.89424522179243,217.11707434227074
-0.1159796840469497,0.46547570531571647,-0.20379228140282246,224.9949004458237,202.9221756936506,190.93784862792458,394.3544674685565
-0.27963000950493266,0.36887404735475704,-0.4609631004487416,-42.583193422828685,197.22322002920416,-57.8450106930164,243.20126889672298
-0.1681413992058931,0.39435619230479024,-0.3099857290468132,249.83494818574977,173.82400916059186,-147.23491762447986,337.9931035941771
-0.2527903017882575,0.3663527633701704,-0.43047801407076164,13.586359396664335,215.34935668937194,-83.80648462723022,254.37118828413315
-0.20311532548445754,0.3785638043448238,-0.3734219355939149,132.10380069871016,228.3753357791343,-132.32518149811017,303.26114041289975
-0.22698416656113007,0.36949601913637903,-0.3993486212051918,75.9327929958276,220.19239569314945,-105.63293673423706,266.46877592151475
-0.1881375332475687,0.38278677370130526,-0.34252358293199014,187.62079521455894,207.1304522659711,-137.8894835006687,310.29523983748123
-0.10678136833215673,0.4840146306270108,-0.16295843069775234,58.50667631343582,335.33701972566166,119.27374018001662,372.7373992401658
-0.133302824169444,0.4243808576898671,-0.24822570319387727,403.2264275001753,48.8681358058936,-36.59662435391523,386.38408540518105
-0.33931373113549435,0.3834008194499914,-0.4881655423608164,-94.11115313814156,119.61745456389646,9.344639125979356,186.23788016131002
-0.12091898700176512,0.42929035539726174,-0.21755800704172917,380.5405809475585,75.74848157598234,103.96811946152322,392.6215794085307
-0.10829835944993627,0.44203978555636,-0.18876202962514133,253.96470801967564,200.2771786944044,185.09982768002445,395.64065089005317
-0.09468961234499673,0.48553238205545346,-0.1342290660446212,45.797496001357146,337.3873504998231,95.69101702219518,357.6960319853812
-0.30882266070823816,0.36870757601371057,-0.46289721716438803,-71.41634886119454,159.71162861860154,-21.2654561449323,208.2565232170211
-0.0978717933506712,0.4543391645610825,-0.16342188193359752,158.65993521457244,281.8387472299255,173.18816203724134,387.1329946097119
-0.2789113456997655,0.36100129396252034,-0.43466827151022125,-18.593512066637853,187.1072860445775,-51.30964503930134,216.1755670397156
-0.25037475465510517,0.3591844355154803,-0.40290109001526514,50.26476662263235,196.44635880003952,-78.16971193237941,222.65421590718918
-0.22334946317100907,0.3637618851161558,-0.37348216173202586,122.92039536597765,196.05759041328986,-104.53067219025317,249.45642928802133
-0.08081498739644039,0.48625079082145234,-0.10854595466693989,48.61584435403685,330.1487797764827,87.56769839263887,343.9702906127508
-0.3680360148951183,0.39269073358537226,-0.48850641150073165,-94.08344024786508,77.9221359136736,31.90607378978841,159.0871718476415
-0.20881546251020022,0.36756844358999696,-0.3528652112136635,159.79423561498797,193.51403620673346,-112.09756863685766,264.11559425989634
-0.08339920905376608,0.45613266360339144,-0.13767730431973874,121.35024181404455,315.71070518293175,141.66261000113576,369.1780672726936
-0.18942878455511702,0.3716671275117101,-0.31934013708960596,230.8314203645567,161.0394279143562,-117.83713111045846,289.3106470480571
-0.06556617997538694,0.4885578350431336,-0.08398957242599558,54.66302451902794,316.2947903122964,81.28453581604143,324.9035826805754
-0.06769291781136749,0.4567224692628252,-0.11405357010965439,116.14470921846174,323.9377224915164,124.59739645460736,356.8965151953205
-0.04948538548891607,0.49163277735446376,-0.06076314257471105,59.70206958553182,299.69705673728083,74.33124513173378,303.42302220230107
-0.052517107416669095,0.46582119247282944,-0.08821912144935434,100.69064753167515,328.1293180988131,99.4614859967246,338.29818795387234
-0.037367417362357214,0.47551663944988976,-0.06249267811182008,88.5326966386711,311.5851366143979,80.85101008849895,311.36557429028386
-0.030275821824506555,0.4910870203201213,-0.03983833981971319,72.04935235326808,288.319748966666,70.29461560000715,287.0019766170259
-0.010760260745187211,0.48907588058455914,-0.02162719059995294,79.52889966844057,278.32455948114955,66.9777110601712,274.06678321750144
-0.0834732150988633,0.4288886855087769,-0.15100427249395793,208.62636173387781,255.7645548970845,167.18722843259368,373.4112288834817
-0.15254817649199565,0.3954154278561601,-0.2706485483433921,341.40805071150726,95.74061020289429,-102.21421845071475,352.67881392256123
-0.008735504767099223,0.4687527488798556,-0.03906509415360193,108.15193771368587,308.67454806637,73.34332513292482,299.5509936281139
-0.024352341375279973,0.4610548162419712,-0.061276728240805656,113.13139038732413,323.28019911741507,85.02906413802282,320.03981856338515
-0.39509784558742933,0.4051845777693748,-0.4889415160439318,-86.86206385607227,50.691053472669864,43.80663304688552,142.3895848013243
-0.008533719445986465,0.4472918428610248,-0.05768677290928115,134.77496728949302,332.4845110838575,81.78532012719545,322.4378522721692
-0.338414594859996,0.37188822754872974,-0.46463122530397544,-91.25579415082824,121.76084713276278,10.639543893675054,186.02232754419708
-0.03607323827636072,0.4459923479771097,-0.08545243841997496,136.44843239251827,328.48922383175875,101.36786525100038,335.4516918170533
-0.09788338214459569,0.4128925230555164,-0.17573206926249402,287.65697588407124,177.01917344557046,158.8365554026671,372.62404301363193
-0.16815487099435494,0.38111960675251927,-0.2876238820748559,304.2032988019572,115.92441225917186,-105.89415996712088,323.0390798094492
-0.14028887567714315,0.397309350189484,-0.2445653000504952,380.54944606809113,61.80145074052638,-39.19511586166322,360.1771282203807
-0.012941176440751656,0.42764257001418576,-0.07690615594524758,159.6440601751747,334.7103795720394,89.8950648728138,329.1293183997462
-0.05048312441495728,0.43265519167696137,-0.10959752983154286,161.50141714337892,314.69277965351057,127.77381656497249,351.09737684192305
-0.30702069469532733,0.35826943637376174,-0.43830236807106127,-50.62406890203709,153.8431009066462,-17.95487637742582,187.0448944674988
-0.11632305683343791,0.40097823203100874,-0.20328887563413295,359.5351797915115,93.46889895051774,102.74368902807868,368.8704651973958
-0.4201135039570491,0.4211051745739637,-0.4901996548591351,-69.55452300923065,26.697420758386016,48.58926063468367,120.37549193957143
-0.02584333928618826,0.414345991410254,-0.09678543116915106,187.96698893252685,312.14879804202053,106.31953586430137,328.64315373939274
-0.06406415032015206,0.4132175043733858,-0.13301366167303114,205.67803714205155,270.2101821254999,145.9178499697119,351.5917439742918
-0.2757621745367998,0.35143628226554324,-0.40817387243707604,18.962029433413548,172.1160358592786,-48.17578329343496,183.52802867689732
-0.4446975782524733,0.44004128871987913,-0.4911233478537375,-45.45207455435492,6.81234074680556,43.224145309616304,89.59304828221427
-0.46763209214812335,0.4593287968169199,-0.49059797719587434,-24.5456049691267,-0.5899382294118851,34.43674651849231,64.38961788996954
-0.24413050214317422,0.3510165545340163,-0.37366452666085004,100.91870878825483,175.64459189595806,-75.48244829601518,201.00393784273976
-0.48940985266262355,0.479212557900484,-0.48974592507120324,-5.6497624897005885,-5.817518328801384,23.65713009752678,41.374813017253416
-0.012521101343002217,0.3941194520556909,-0.09648972279216816,203.37136718290412,300.4999740258194,93.53722958463845,311.1184610054694
-0.03965622211116254,0.39894256676780926,-0.11560597637361741,208.51140523693473,277.4270508613931,117.38292530840657,322.3853655170477
-0.368061115137933,0.3786198249037605,-0.4657937347500473,-101.86859197116989,87.1953279068708,33.5572999902725,173.89933199188613
-0.2132636119329137,0.354317521223074,-0.3326877748615813,191.57250327725654,157.08181818939465,-92.55050563193439,238.70264507519693
-0.13259170288728328,0.38419412440403267,-0.2228454437670906,371.7110024379716,66.2311110586063,31.30631280088472,347.67377293216197
-0.18794973399018527,0.35862574504200234,-0.2953895801726673,262.6603089993382,124.33555376053668,-86.50207499789697,272.4694107951315
-0.0131402462216329,0.37019227164016366,-0.107770635135784,217.7429754105797,263.22322685528536,85.22107300017002,284.90587170856696
-0.3364999776708251,0.3588221025384696,-0.44160544316041644,-80.79954070012546,121.77506404003512,12.665994266865411,177.98422254451063
-0.06754786607382374,0.3851116000454301,-0.14434337059271646,254.5256185700046,204.3998397517014,132.41567075249438,327.3214306046154
-0.09033164967634194,0.38404924635435295,-0.16690683696223801,291.2586172507766,156.91033204196094,130.22150324247542,338.5614682766501
-0.0412598255759683,0.37684488357138424,-0.12451663732987078,233.10553513224085,236.75914933819706,111.72290608542241,304.38337722881136
-0.3034233399917432,0.34634265796171126,-0.4138228714644948,-19.590003484262976,144.98067466467117,-15.676028439896001,158.05236406809502
-0.3974119482133652,0.38911916412922987,-0.4662787274902406,-99.73555670213997,59.454656079888395,45.5291182706508,160.09522933065261
-0.1511195015014461,0.3678774802541672,-0.2424613629577223,338.6676513862481,70.79005136968084,-21.13502393950504,311.5650441565742
-0.16439537687195294,0.3672316826772333,-0.26414192687838267,320.6960562524191,87.69583790467073,-59.510442823246024,305.02014610666987
-0.27053795530472224,0.34068638769881304,-0.3817315514822204,62.63742333260654,154.09603756318842,-44.054868212690764,154.39997116390182
-0.11174046635241158,0.37234178874193424,-0.19031409559633183,331.3414396400323,101.16533320160298,90.50779356135237,333.28109638242455
-0.4449823380752724,0.42437641824624633,-0.47426971949948227,-60.63570044146447,20.29406790569385,44.15215822554397,105.67554878199938
-0.2385541797768011,0.3404335305671229,-0.34564076984976944,147.65524443860164,149.63981966144922,-66.84547904127092,188.42504316954702
-0.4215749611096933,0.40532546468482017,-0.47080805805398035,-84.77939941647577,38.645088981230174,48.0839322707491,137.45359409584185
-0.012755652354638491,0.3443587512824803,-0.11612912601600384,215.6656540883462,216.457898665197,66.94733585690734,245.21215158450218
-0.46697250243303706,0.43994111585435497,-0.47187081083702037,-41.127439513153426,16.061881993059686,35.835984915945154,80.39084437230142
-0.3669518270342569,0.3631341209944115,-0.4441249124181542,-100.74333495947204,91.5058592837585,35.21741155321866,177.37515464156678
-0.21052392137058074,0.34059851920092865,-0.3063521012863354,220.70871033498327,125.3118853635678,-67.3313720680852,224.40704047907667
-0.48915357827744815,0.4579278466806812,-0.4693732806713063,-20.332949333901862,13.243230168013184,25.33752924157702,52.76416460178934
-0.039909504262548745,0.35193443371751193,-0.1290995927272855,235.46934107246494,191.85435008966925,90.31455494790103,267.4850301273738
-0.13234828250163289,0.3584057570034172,-0.21059367605866658,335.71642705132945,73.7677123336782,40.19489647471803,313.4151417313498
-0.3327537861119214,0.34435219076854223,-0.4189451501278576,-55.480079373423266,117.42393338784316,13.220680196867818,154.6139309339706
-0.1825945649959163,0.3437593847490988,-0.2687908054233392,278.9234794042932,94.72138200311196,-49.240373435717686,260.0466751518893
-0.06497616158510489,0.35515475866713064,-0.14541550186151803,257.5724306168158,159.10801940883113,99.92634171182493,283.9593296020056
-0.01175887596723546,0.3180060636094764,-0.12164698719681993,195.00414894168966,166.42448346965983,37.161039537053725,193.4246380867181
-0.08785458795629186,0.3522633273452952,-0.16325538159753816,279.79660882832565,124.51081054085911,93.68011382974085,292.026151025955
-0.2983234414061614,0.33329730450540224,-0.38952007065929434,21.219540713969806,132.12793178405207,-14.621001066145922,125.48181642862579
-0.265302363533386,0.32832269539043024,-0.3559715292809897,104.1879050900803,134.24157914265072,-38.34374890641091,138.92552490996317
-0.4374716342020842,0.4034157738018625,-0.4581197522811557,-84.90518367208288,37.99159496037879,47.135869136282736,136.17380558620025
-0.03738147936640257,0.32756646946829354,-0.13074924878451566,223.4791477917466,152.65758711925992,63.694738185558336,226.50064005875063
-0.3980520751036637,0.3714974591232164,-0.4452735316929982,-107.91501450984086,66.22879055093425,48.09752906508378,173.5485547455573
-0.11069579098198634,0.3432855524349597,-0.18183183600427638,295.01132536627676,89.91095845481877,69.31391672297062,288.1044405773013
-0.15408951714877978,0.3458024378068681,-0.2313715556766862,313.57006773015024,72.26961186569201,-1.3612462346956917,284.4170460114627
-0.23508314871916924,0.32606191622392067,-0.31889911667393384,180.1994902530521,121.90689738819401,-48.52878994945145,180.08530620921223
-0.4633633481419827,0.4176290188505902,-0.4539263407501577,-65.8552763355407,32.18988572234616,38.52328544242838,109.29368942138954
-0.025501161716734888,0.3034348856452906,-0.1282214309392976,187.6651522136126,126.31081538935948,27.630301142203077,172.50737279038265
-0.36334965170475564,0.34590118484140664,-0.4230192926928922,-86.02949188213248,91.9571752967621,36.543547738304774,166.6568848612599
-0.2059671033212343,0.3246256893478447,-0.2798651726689263,236.41802046201815,97.33154976085001,-38.83240227254916,216.51753982954526
-0.06087725814051681,0.32726408437284515,-0.14303970232236635,236.12093739505536,124.42096821435945,67.69021824963764,235.79901548012046
-0.32749611008288915,0.3288739163755464,-0.3965602609526264,-19.504572717152712,108.70372145585799,12.721663447726364,121.66622052823044
-0.4881360517537656,0.4352767643746841,-0.44998244983910557,-40.078870505081746,31.9290161504332,26.0486811487143,77.07826026648345
-0.13471196485938602,0.3314486176356349,-0.20054832984769289,288.82230429249876,69.59821023486815,36.899208195324256,268.7849950543797
-0.08501572828924192,0.32355999934460744,-0.15740550548106852,247.67145630038016,93.52065664251478,63.51419252224299,242.9547781280221
-0.2929381447143047,0.31901337639225863,-0.36551653897073355,63.38198761680151,115.89334894096939,-12.158103970148531,102.69592178860032
-0.014551961970514171,0.2807065479819114,-0.12598770161054074,150.3059048669056,96.68498938140837,-5.51403623929129,132.2828075770515
-0.17624728785938154,0.32720526329978744,-0.2444882140550797,272.45251868396264,74.28194631230787,-13.691254789769253,245.09636980746893
-0.4286691098549536,0.3818756775226712,-0.44292594081066755,-102.96141342491535,51.509404094818926,49.97431752652999,161.4002777310643
-0.26120157994147875,0.31342880524578887,-0.3307378318176835,139.0285693790752,111.81795857660416,-28.2153399708341,136.65512936237252
-0.053141388774521126,0.30152110852887165,-0.13806194386280785,197.43825971136508,86.53280945757326,33.67547158419639,181.07185966485451
-0.3945095271872286,0.3511253662888797,-0.4253667577711665,-105.30023438516506,71.54582610765297,49.6176472224887,176.4269525925655
-0.23134532515430817,0.30923853806670126,-0.292927800767783,195.49035690072844,95.61097789724889,-28.65619270364534,176.4382234202298
-0.10999644171641926,0.3159844620898324,-0.17299837302399362,252.27482806747312,70.8022613450867,49.23367893168654,240.96843404038677
-0.16014153898680034,0.32086575345399854,-0.22085196429009435,272.13405407837524,64.48222728535757,10.977024079175127,247.03962489962893
-0.35798238627469803,0.327635739887041,-0.4023980973634803,-54.673921403732386,86.94901432994146,35.101709903556234,137.83904550118353
-0.45911995791197596,0.3950441326553866,-0.43779746270136194,-87.4761879787017,44.72680490768862,42.29991009943295,137.59704981425878
-0.012326079171151416,0.2544538840258653,-0.12572526344818957,110.04297173629698,58.86265225773501,-41.23990306538046,119.15970415864169
-0.04526879283476409,0.2786908011542064,-0.1330405209787356,161.27253511874537,61.51814114289638,3.902642234223009,141.13049827950587
-0.3216037254042109,0.3124691515456654,-0.3743389441216831,23.715143573861454,95.6685826872206,11.684305396450199,88.63216431954993
-0.19961462353394116,0.30640376260577346,-0.25319630230845697,232.01183747385073,74.0474212479133,-13.76304799814071,206.64195974711234
-0.08000054296751608,0.29784764494451643,-0.14959023449908648,206.71807065442124,66.17218509388013,34.547316940952584,192.3868075130069
-0.2884190952044589,0.3029120489729687,-0.34187344274342085,101.03985584529994,96.22715367771994,-7.885726098290391,99.6618977666287
-0.42549409078002864,0.3599675249621039,-0.42535083299132465,-109.75290020515645,59.348092064179596,53.25600002381775,174.90032869151028
-0.13682999816952135,0.30628304857466404,-0.19012301078681693,247.8758293548487,54.938987461961204,31.319731561179623,231.91690062572712
-0.4869241325632758,0.41177646683169394,-0.43235294927627493,-64.48009399884707,46.40079818554112,29.3089708778641,108.9939986638675
-0.25809314206508027,0.2958568409912584,-0.3061014659017621,159.9766849356311,86.99908806411943,-15.955932107743568,141.44727163979692
-0.03994865249546231,0.2572302032362831,-0.12885810440640783,128.95776140368758,38.33920770426329,-24.57723466145848,122.34370463951727
-0.3898411303023977,0.3296966113623273,-0.40638021638609056,-83.70312279359833,70.08225416458609,50.98908934554579,159.94843024251446
-0.10699287902572802,0.2912900989198281,-0.16232938291419358,209.8486371539322,45.593216965323904,29.152510189947485,197.72992706238983
-0.026537443781845416,0.23672271556652047,-0.12467602471291495,93.73949532648821,24.34065367794348,-53.824115928635045,125.654232639989
-0.07364512437401927,0.2745006845986247,-0.14125852108524178,167.3421622015557,36.128825986519914,5.059443089580803,152.77306487793632
-0.2280802865852683,0.29011423672113473,-0.26817477459817096,195.356483469643,68.89930192261218,-12.016923146550077,172.87152289392176
-0.3512335529850109,0.30874666280621027,-0.3820228234202323,-13.421828075891348,76.89329605475913,32.05401764515423,101.03045673699981
-0.16646230282478064,0.2969651089438043,-0.2108458244188735,234.8366864444014,51.89028898700052,12.839244664538407,214.82473432465486
-0.4566353690653797,0.37243720511538486,-0.42247710316325565,-102.5299477002628,53.98865610322516,47.55758288080568,160.46118009760553
-0.31647894279515854,0.29472372974838795,-0.3523720625065706,66.12025196319956,78.63918996938708,11.222776045773564,75.72462591707747
-0.28548712251096775,0.2844255731195931,-0.31883175646622364,128.72710943706272,74.00995443829756,-2.894951656459938,112.00980667267206
-0.06624435705096826,0.25216776384081324,-0.13296252104299938,132.32056330290376,11.574701376921396,-22.570486837003685,132.81345868052532
-0.42249716783853336,0.33736587958855446,-0.40898072265552526,-104.09797425950559,59.663385141395054,57.06890214223518,174.2914916951114
-0.015390473444647279,0.215873882060064,-0.12100341157970146,61.589240540361516,1.4568503607977306,-78.81966435938307,149.47658386913713
-0.19614192343291542,0.2850690988086827,-0.22980798696120414,211.01060374369172,51.815476378628404,1.4636500346324741,190.4813123247836
-0.13524000846383794,0.2830728836407267,-0.17667470501535343,206.0452754665576,35.64370660408939,20.26947640403315,193.94191666001504
-0.4861324574657538,0.38737037029525806,-0.41660022622259135,-84.00402595038047,56.67679403650505,33.67464930175816,135.76435560169963
-0.2564587683550043,0.2755752926100074,-0.28236883884162856,165.78274886300196,61.46279011331731,-6.808365070531902,145.640604215007
-0.38179126631406307,0.3074077861160047,-0.3876573620218577,-43.96698264229059,62.247723920258935,47.50021654687103,123.7478525431585
-0.10170646145721673,0.26839660897490475,-0.1506269060815525,169.0191939370452,20.97592692631963,5.881048437285752,159.89341249889875
-0.056026434708117356,0.23023718168003676,-0.12479979130142999,91.6200664861603,-15.954162713942296,-51.383866252102465,134.2810428633009
-0.34504681566835105,0.2887663653501728,-0.3617321636763946,34.2127745481393,60.89874682545529,28.6938241718198,72.56488716038305
-0.3134375893997124,0.27510411718285144,-0.331220219834949,100.92320705136522,57.50673434121231,10.71835471887632,89.62925606628927
-0.4556932886846855,0.34962414607833847,-0.4085568378999117,-108.20192715570755,59.46041563222784,51.99885129092907,172.59365931279515
-0.2267660768539771,0.2687365434253073,-0.24527072877512535,181.2203570526232,44.52882699467638,-3.189393825741936,163.66007764760275
-0.1647059277672943,0.27385163826831493,-0.19274048696947266,194.18002225250652,30.36289974215886,12.309933219634498,182.17168150612451
-0.09463438830710735,0.24655159073797997,-0.1386695655047423,129.0460271402672,-6.178768555511766,-19.371730598540573,136.43383625554353
-0.013582508000635263,0.18841847544828697,-0.11530111133171167,38.48013761325782,-31.546549136081282,-94.41702153788337,174.45212286861303
-0.4274940697396537,0.318483925479563,-0.39661467479378243,-86.66863164997302,56.70543769104336,57.57675920728745,159.95871551762636
-0.2845792902046832,0.26326173972102845,-0.2965599689234011,143.61406698788392,48.69980594802986,-0.6384684166490757,126.50658903083287
-0.1306382674157831,0.2610398487161502,-0.16154201813433278,164.46241486540427,11.09228926802868,4.923390175828814,159.43456155310463
-0.04714258416507361,0.20852253818265837,-0.11712943130428399,63.21960002917713,-35.70693580971428,-74.35313662902644,155.28763013405108
-0.40664949199070455,0.3017329535069619,-0.38714626060387497,-55.268080119686054,50.297970548964,56.72902147462889,134.23436378224824
-0.37327998150616915,0.2839437330345596,-0.3687552376777413,9.114262755952986,46.866693222107216,41.83143548567413,84.27341423608685
-0.19468755550760047,0.2622885065938292,-0.20865611161014153,178.7721971344891,27.58607655986829,4.4400694914230945,166.87722799290998
-0.48582358808679565,0.3619300309205501,-0.40305625178069493,-97.07043365097535,64.24686872356865,37.990629357236756,155.2954100885238
-0.3417611609408882,0.26746833122085767,-0.3425974787682676,76.80844681991117,41.070194914800354,24.199851995033725,78.66803061583911
-0.08588102780329393,0.225197031916593,-0.12681296994213354,93.72449600335317,-28.263637026865894,-45.99310521381682,136.30189524090034
-0.25693745813217855,0.2525014534565356,-0.2594385091560917,160.0304250137782,33.865217522086894,-4.917723623171071,146.32045910113465
-0.45732948710697074,0.32687812184619447,-0.39653516843577297,-100.06548251825495,59.21459894071259,52.93633588490407,166.88790820549622
-0.16038423888394004,0.25232147311968967,-0.17396168775417253,157.5191352095527,8.026041500854319,1.9086092129628902,153.69895429166604
-0.12422535262154866,0.23988832270819524,-0.14602018134403155,126.54455649837331,-12.07661507747278,-16.909461252195776,136.18145596812485
-0.31273955137486353,0.253374477133762,-0.3111954558537955,125.83256946269361,34.487754759860636,7.5086008255213414,113.36972800795834
-0.4322183238012238,0.2976533752026877,-0.3856625382047371,-60.500340037863026,46.72610216084176,58.27839211738786,137.33054212585552
-0.2260729811543596,0.2466084404603359,-0.22304125961546117,158.3259887504783,22.05545459318995,-3.4542456321646373,148.651961218084
-0.04196925508981558,0.1850762420152188,-0.10863854276719109,41.859350323746284,-53.06748384812185,-89.05999821866874,174.8850573857667
-0.40055466347866897,0.2784572754172197,-0.3726928239424283,-9.499223297789008,36.100248781896596,50.31084105409885,96.59156128965641
-0.012155183403206427,0.16086073688226254,-0.10705934927120958,25.374407226140278,-55.49999083835927,-96.90970987270548,182.5016835444303
-0.370094354885659,0.2605017644511723,-0.352017357221916,55.93691394700748,26.726569594762736,36.63458203800471,79.84061525311262
-0.07729954722316279,0.20350852037367684,-0.11508626639101921,63.26714010673323,-50.83218171322349,-70.71469737306356,157.49398004712594
-0.4861256520616063,0.3354377312379651,-0.39195660473955246,-100.18477632640253,66.73449932547965,42.513970389982234,163.09070093335257
-0.19061607220259968,0.2414848984526816,-0.18706571795458876,146.47648622787028,5.074958984513756,-3.687793566204399,144.14767958838829
-0.2857989409273163,0.23928742676129064,-0.27477633002842095,147.151262253889,23.20088298998479,-4.75559756223009,137.27921496558906
-0.11615658825860986,0.2195714447056087,-0.13063857956967406,91.66141899104088,-34.70144987472298,-41.82727030809686,134.2957635806225
-0.34114662637139337,0.24474994269630285,-0.32512763272773415,110.33046168665751,18.695171201543715,18.079795130041315,106.95938625525768
-0.15436024027186762,0.2316329098954139,-0.154683884263838,119.9638591838742,-14.309318597680573,-16.493037800289702,130.87683552841972
-0.45879587034577274,0.3019011726094313,-0.38610328061913113,-75.58891244109554,52.51446007257484,53.301032682616736,144.78937592295597
-0.42895449112701545,0.27466348549679054,-0.37553458780925963,-25.644409631076183,33.5145911652901,54.23793337476277,107.0774753207197
-0.0369973079730499,0.16052505583940943,-0.09874394763497929,28.44593557834997,-70.24968822712697,-94.67689074786783,186.1011794097375
-0.398308091882054,0.25374927962584154,-0.3594436423628511,39.73599459981159,16.92230666853736,45.96383474192315,86.78082366497445
-0.25896224367519394,0.22698794182859733,-0.23594881709918353,142.1401992115592,10.586612581830593,-14.070614746663846,139.3021032667835
-0.010802239809496406,0.133606615935915,-0.09605712324669152,23.630977562539513,-74.87097871409196,-86.97503667922415,175.00666269688847
-0.22170084751673286,0.22721475291925816,-0.1997559398568623,133.51799873679758,3.2478628256014304,-12.527946918065524,133.6966896258582
-0.07102061397917048,0.17990695910188825,-0.10213677117226122,40.75937851271025,-67.49001449477208,-86.95183496421225,177.90150322804598
-0.3140016483619943,0.22967180440559704,-0.29221116804786057,140.05282498694436,11.534296606143982,-1.3049313068684114,134.6756529527194
-0.36952720520222965,0.2358548142531973,-0.3371084115721297,98.74043360608421,4.398969548372833,29.185599228210776,109.04157742855682
-0.10638424898372795,0.1994497439030856,-0.1154270164560291,62.75462930638301,-51.338123926759394,-64.77252594682314,149.60578784460654
-0.18429788348782833,0.22181038619265833,-0.16444097093059296,112.62642009787754,-12.255805411185577,-20.305276216568075,124.30669928009448
-0.4863687609746879,0.30743272417794343,-0.383424034480193,-86.45537455594858,62.586307622250956,43.80514684790816,150.1971139205155
-0.1475671424742792,0.21118413067214128,-0.13498820604401474,85.15067060538671,-31.63560259212636,-40.392903673945135,125.85706509082802
-0.45756170318782213,0.275421674380984,-0.3778193867583376,-40.62827614540254,40.21231752446991,51.06744007077975,112.80556169894591
-0.4269738119751669,0.2488734213791449,-0.36592212567359117,24.14009280360811,15.51719457682654,48.6586014096403,86.90177998402804
-0.0324567454671047,0.1341024159559458,-0.08591890343866643,22.587020265222943,-79.12415557083354,-86.06587023955073,175.4422595752793
-0.061430695161862725,0.15817096855789928,-0.09099170238053639,27.50156199518333,-75.58996624519776,-92.75287862606723,185.35994856574882
-0.39745737239208084,0.22716508638438176,-0.3474920363355909,89.06051403210732,-5.0180576718754395,38.327599215620495,113.1851644123961
-0.3420555263797298,0.22100313091401247,-0.3091931076127894,137.44004370032928,-1.3780097909641427,6.566517698591561,138.60164397755085
-0.009109423194490374,0.1082625634450334,-0.08335580703599238,27.326218393736788,-85.11042686930693,-68.56454231323919,156.26753493181042
-0.2895109860750521,0.21218596751268745,-0.25286860997357996,140.86198841261046,1.523377437437091,-21.728925184639486,145.07333680752635
-0.13506367557282206,0.19447188434148,-0.11721943624393799,58.86658527403225,-47.97794285237666,-62.47078619822085,142.47544669533193
-0.21415144765515753,0.20964902590146745,-0.17458025488075846,103.69164377723526,-10.048843832700015,-29.55632642515614,120.48089758100075
-0.09863413748017502,0.1769975859614033,-0.0987553856756096,38.01163982306823,-66.2567092791254,-84.5299735702979,172.59580455765098
-0.2538134602770655,0.20758490382943043,-0.2101802800083663,119.5032995044071,-0.4720102623602145,-30.77218171044073,131.0665848778434
-0.17823356396805834,0.20212678277096552,-0.14129893849465902,76.70750591481453,-24.93741220576527,-42.888026440347346,118.0548648777731
-0.48599343277765616,0.2784925213926119,-0.37766334889355696,-54.401153643295665,52.389729215741596,41.448494812397186,117.08186930544095
-0.05251117038378622,0.133991269283512,-0.07746520035474752,22.73490903941004,-78.50230914493028,-87.49175336892787,177.28127992153597
-0.45593879784699926,0.2478867463098698,-0.37137322222517255,6.134447576174004,23.548153670031027,45.258070758192524,81.19464871768588
-0.36985780612461105,0.2097750915437037,-0.32351794818780805,137.2877136106746,-18.224048897452192,18.45518937724317,150.67764372120175
-0.42593969862152214,0.22024971387768777,-0.35754463891650934,75.95427916358203,-4.868368004412687,44.24535293468314,109.70633838437948
-0.3182547070005043,0.20382488550630676,-0.2751190528470161,149.06228328553075,-8.12026179239615,-18.872324596408436,156.73041064369193
-0.12495591259431399,0.17654264307351367,-0.09921669801529681,36.37468614187288,-53.377675640868944,-81.50765927763857,161.38273082929206
-0.027825536651741145,0.10684198570565812,-0.07060808614355074,26.57685455564571,-81.50687012834362,-65.54400684811026,149.67947691648607
-0.0749086713199777,0.1436460805257436,-0.07692424274862247,23.881366105585215,-73.76353505316294,-89.90973580527675,178.9531629063285
-0.1509950879450077,0.1806058207723107,-0.10766197715404074,40.97384021220949,-38.92753399885697,-72.3997588512095,143.22846884621862
-0.011850629575871685,0.08508012156510211,-0.06611158674218248,28.8050126184814,-79.24208057137645,-49.21992283990331,129.071327680096
-0.2089373411495799,0.19167639197554848,-0.14943951155220248,68.96517572297097,-9.70275091929426,-51.709002411358,116.36560295543079
-0.3959011772400963,0.19868907792051527,-0.33608589488631685,134.85722696741104,-25.80163740359903,30.733808483378986,158.6361698390177
-0.34383428501702945,0.19740053712027492,-0.29500793049960905,155.32323499163027,-17.495540297989066,-8.756635083928167,165.4657098905181
-0.4854377846787766,0.24917566009046008,-0.3745494387288015,-11.378334861775127,37.891994365433696,35.24428906515138,75.649833290041
-0.24174168900282478,0.19453814945064016,-0.18241439087985217,92.90056419857885,-4.2123570551949,-44.87028188303695,122.79908678894063
-0.09821029117153912,0.15395701836110537,-0.07995667837447018,23.641919896062245,-67.83314495635724,-93.02584172698653,180.90164011816262
-0.45507600007390914,0.21876407334381892,-0.3668709952571618,55.958187829868024,5.353869826843962,40.4182946190502,88.09827168381574
-0.1760237081058395,0.1825277978043847,-0.11831187962360679,44.805866112029044,-25.09290946002389,-67.46898165921257,131.97620900464833
-0.04774753643668478,0.10717305146224335,-0.05976851686917306,23.632739293581952,-72.9488536013161,-68.72988481542667,147.56494857321536
-0.42234992479362427,0.1899329994929228,-0.34943396427285434,127.9520538611618,-24.128768405860157,39.12150238523213,156.94816619947036
-0.12559307743165982,0.15800885604178763,-0.08119493063898597,22.566583998751877,-49.53990598543993,-92.00312822976302,171.68321484733534
-0.3687300101304662,0.18286738394117816,-0.30959834998049474,170.24694668728011,-33.89111257348641,0.5109091623741904,189.48158719991207
-0.3010940980105904,0.1823563819018424,-0.23694218434834075,131.28354143208105,-4.892184452260267,-52.52617305964283,161.7979035363877
-0.07434587874087706,0.11999831121412914,-0.05725877508229682,19.683660423137646,-64.35736340619336,-80.26625770023097,158.50590391170252
-0.485488772551678,0.22005223453768055,-0.37417795118302705,34.53914725703879,22.739323483067988,28.05928807425842,57.32890741246125
-0.32839821321184165,0.17540281732818763,-0.2634567129785729,159.22170629180542,-19.683822016469747,-46.77723883024689,188.24831088007775
-0.27971028802285447,0.18109383177946303,-0.20845951579605204,105.33807134218554,4.809820429982977,-59.98383059168773,146.31051307551445
-0.35406852060761745,0.1703179317063807,-0.28866839994430227,180.21934358097852,-37.01317725837552,-28.879445343891586,207.41635589071083
-0.46110148677241575,0.1920984068372233,-0.36800833873907696,92.8205061627405,-0.9122648134778757,39.49222744295538,115.67222466243608
-0.1525180444307594,0.1616256438279132,-0.08644739097698945,19.933748284788038,-31.027341366231184,-90.41968017352828,162.8057036277538
-0.39163789880797106,0.16783010699892614,-0.3230228431696149,181.92298228744855,-45.12276634461573,18.78403578383959,210.7117076728486
-0.20429575220446056,0.17549526302545135,-0.12491840944669758,39.287241974077716,-2.960645159580224,-71.46140476718976,130.34095863685707
-0.44458324778295855,0.17599559450204383,-0.36074356069642044,127.46015964475109,-20.89735367188959,43.76363835374595,158.40498681606502
-0.01591264339560794,0.06461122723746597,-0.04664548912447197,29.909003862137876,-67.28660384844544,-26.521817584577136,97.6971406327998
-0.10042634209968704,0.13162964014856307,-0.05822465713795666,16.8403522478241,-54.02693790911965,-89.93982222912331,168.46321561915667
-0.2400237422296037,0.17670242017321905,-0.15682668060952798,61.291763823756575,9.36620865353757,-67.93248385974827,130.8235522316872
-0.41711895171762636,0.1581352085468284,-0.34185221373988195,178.23272997472642,-39.73445854263683,40.64594531930186,213.03519160631902
-0.48707938502802456,0.1912788799929816,-0.37713407907011043,74.46996377973132,10.548997473668305,27.276148526869953,84.28189739592369
-0.17732732394382522,0.16267338302487455,-0.0929080770092851,15.487280491528697,-10.241990401200042,-89.62297420742031,156.84453232385331
-0.04522471975561326,0.08177018514095452,-0.039107316305621975,27.05389620298865,-56.87177866644498,-46.89840948849655,110.01499053774738
-0.2639212278171197,0.17235286714011677,-0.17694571814606586,69.5184650413518,17.27383976500269,-72.0866062595747,139.71323524336643
-0.46660099024909163,0.16358490226053563,-0.3725675410463807,122.59430627314082,-8.446700194623467,43.1671813609565,147.3989303400018
-0.12713729132543922,0.13937482921447025,-0.05986625212569774,11.049472848806156,-36.68619237970225,-95.82068852574746,171.51718192888885
-0.44090028902111356,0.14603913371728405,-0.35945364891830134,163.40401301359256,-25.639543980060708,55.459298815523624,201.92836239112333
-0.22477331237292575,0.16371685964117982,-0.12101295168366544,23.655838860598436,26.459362611410057,-86.44300522010545,151.82541822158947
-0.0736535289597739,0.09799895673152477,-0.035893887115548306,23.139078460718746,-46.2098993098017,-65.33645037377809,128.6335161393026
-0.3652220055102936,0.14193923764056224,-0.28600557633620705,210.4468089201132,-48.44855248677442,-38.55571372661987,247.56937224396287
-0.3895849254154524,0.13652156749567615,-0.31314239814372324,223.03202895093222,-56.09868401478883,10.152710249726443,256.3423183551652
-0.4884839747030569,0.16121861858152622,-0.38344896574966564,105.41626875204634,5.409998431746757,34.7714737408795,119.15839085160565
-0.3409228762333536,0.14574030666955884,-0.2558893381727486,169.97962569421128,-20.345335383461844,-80.34446112342773,228.32213124389787
-0.15405151520760713,0.14422440018205704,-0.06301049451017504,4.935286221344997,-11.822924747628406,-98.80006839671573,171.77557644457133
-0.012353076631736737,0.0412266105202388,-0.02860968965350824,25.625198788486433,-44.12210952590101,-7.344178883275802,62.41682529528635
-0.24328177816456725,0.16234630346624843,-0.13761199420040066,26.309940325716546,38.83280990756256,-85.18517823075024,151.486154299744
-0.4645050558761231,0.1355613127386364,-0.37690116839143817,143.247523639216,-7.898320277132548,58.79715725923363,179.12277470460785
-0.20057014110698113,0.1592590768692365,-0.09688123295598039,9.118989087759044,15.449010254824884,-92.84410182746538,161.37233423468908
-0.4138982948451139,0.12744608087206655,-0.33736272530117695,213.60522355444,-44.204372552488536,53.03606196524666,255.85537823153922
-0.3184958047692302,0.15040766758283197,-0.22669330389199233,122.62449239585982,10.111050682180064,-95.39391268202816,202.97569498368023
-0.10122303931411958,0.11190328488778256,-0.03567145156969953,16.238921544709005,-33.12770131051863,-79.54248300357658,144.49956787726052
-0.438055768672893,0.11487881761415374,-0.36168063413751717,186.74953792965565,-15.32720724598856,80.69747171112903,239.81014968417668
-0.29937623185978024,0.15127690270248348,-0.19706203602415834,82.17276719155942,34.09732423330556,-99.64498652182712,186.8167276196545
-0.4880200474893771,0.1319793481654174,-0.3923772851947078,118.1147898091649,8.404427199569785,50.06907681571321,143.35197304399347
-0.1287545453743471,0.12226122983284916,-0.03658962605430072,9.371498842467977,-13.322959734412791,-90.9671360937356,158.79307886572735
-0.18004745943741457,0.14589610823862495,-0.06671454172906593,-3.0307043083016705,18.619877362572595,-101.86296627280154,177.5964752967415
-0.4619593920237383,0.10494502393809896,-0.38483534963446275,150.266952860904,12.438406440559014,84.6325967833825,205.80043478454863
-0.24252972856753813,0.1507996659398932,-0.11303740399340767,-5.933076116466701,74.1479255106413,-93.97730558760429,180.1894653751601
-0.22108911253211727,0.15261746952251076,-0.09716107590967799,-2.8347003031046967,44.61337707354642,-95.71796424837208,172.07742598256658
-0.3899033858253615,0.10340938348273555,-0.30756223676074107,261.18173251154224,-59.831923621124446,22.953317748251067,298.3342527095321
-0.4096142162887026,0.09693422832257971,-0.3338343129201957,237.25490049076652,-34.80830604165455,79.26085431257167,290.8724741903469
-0.05028421118412335,0.06100321623126987,-0.014127800930709977,28.698543909978742,-28.645446191267,-30.975108916001286,73.1069266380771
-0.4868192982382061,0.1033385648619896,-0.40437094378482397,113.82117745482375,29.522159888432977,68.9990750871472,157.31874793175479
-0.029724941448396713,0.04073886673640162,-0.011727442379844133,28.091732204402128,-29.493356480126764,-12.65479681142759,54.47893734070005
-0.4299366660968605,0.08947318275376041,-0.35934150759778966,196.8655977784358,0.48637225985120836,103.40573711697056,265.9676476323194
-0.37034046523234704,0.1098843606744394,-0.27879066449417655,242.5451472187023,-54.61689777939014,-57.324031875657994,291.4041032078335
-0.009418531389939977,0.01866317312068038,-0.009271319758664853,17.18075914460209,-22.33562761161187,5.818175587175828,35.76807634494314
-0.07661743441063606,0.07913083852834572,-0.012479407592717595,26.63424276858488,-20.51632119936417,-49.34545567707153,94.77162545238431
-0.28281533018203553,0.14824039465970495,-0.1649806738488731,41.282682304627365,60.061545783591185,-102.120958057253,184.71117359397635
-0.15646515904700836,0.12917540295481905,-0.03831399540963337,-0.9844715828459307,15.378656940988947,-98.51046935827486,171.36379385363065
-0.45897947090705105,0.07365418485550801,-0.39739889899571473,134.3592938214506,59.00481960709965,107.35119459979687,219.49710618731092
-0.48954585183812654,0.07934265134766723,-0.420816153478951,97.24519889953467,67.88012671205291,80.41646577764769,163.9016406034972
-0.4403934067752416,0.06885579209497969,-0.3802750616171221,156.6677663851425,51.01589855433133,121.11017458175631,251.3123300087916
-0.35132200577215905,0.11500644856028426,-0.24804203218769744,176.9777031703095,-4.905798367310496,-119.79518391612282,274.346586406347
-0.20526245375109115,0.1440226307249797,-0.06927383153515981,-14.425231135610762,56.26494964199108,-104.03815370362474,191.46090732347412
-0.4760254859468661,0.0639922432121017,-0.41995316943426053,102.73281432646915,85.33492286863833,91.89063425509443,185.47519889520657
-0.10329600829937918,0.09482756476850487,-0.01212000660251722,21.580962885305247,-3.7352998911820805,-67.21266117746306,118.7978419851153
-0.2591744151487555,0.1462832082588794,-0.12238812016004713,0.6222559724297554,74.81434117339364,-98.33383203046134,185.90225050405004
-0.4922073798947125,0.05536627452644953,-0.44092968069834154,74.6235435873489,118.77197912186105,79.62683451071815,172.72396661636958
-0.42210571683508546,0.06386927169315078,-0.3598997440575476,186.00785729981934,41.79217147869011,135.3458174726194,289.01091195231925
-0.49068049228690813,0.03334799894536979,-0.45854887986436504,71.04648881536562,163.70930170736756,76.5388280662941,194.40150352059305
-0.47233414799707213,0.03747410096130668,-0.4367924014674893,88.86323480195381,144.75741730591162,94.8917758152534,207.36711251614204
-0.48967638463231866,0.010952326107551515,-0.4788014664636719,76.51143742833051,216.97433180941988,72.88134887939411,228.61740037263834
-0.40447898326066367,0.06394236829544452,-0.33314997026160265,234.49829538616908,3.8763614697276125,125.07481269264528,317.84682296762406
-0.4552101979157107,0.04111968930826367,-0.41555410064605885,106.71943006841639,131.30075443966777,111.75260182875934,228.21593992464852
-0.46952447401949293,0.012037349542385422,-0.45699723704392065,85.18865621534941,205.6197303339083,82.05814060940659,228.51854947176042
-0.45056015478787126,0.013014372932065612,-0.43491143086227124,89.1131659962711,195.24314543731498,96.38168562236963,237.76163554150997
-0.3336620749467839,0.11963138098679756,-0.2171013501264662,104.07451033432085,52.09751834990246,-138.24442273190863,255.84798740088547
-0.4379665980463908,0.04035100786864592,-0.3954653954175754,121.72765014213725,123.7285153708312,128.80340842941433,254.62941495913932
-0.2426004201116349,0.141579302346316,-0.08892844732937821,-20.858231705413324,98.90426805829144,-104.08037903727073,211.6087524453161
-0.3886087064981265,0.06874383529300314,-0.304146058877275,279.1319397021853,-44.60147504480179,72.66116257098022,328.926376594231
-0.4326950918946411,0.01300061256848444,-0.4122622854986689,90.5687747684769,194.38731457473838,112.27416548714051,257.29394634653625
-0.42048690392032806,0.03879500430878375,-0.3722606547743015,136.5872040115252,115.82772902631675,148.8443992391522,287.60303720747294
-0.1842258448098255,0.13268445491040162,-0.04034429663215122,-14.053324545266,55.4528134646107,-103.79076782018043,190.70757009250985
-0.13076212423853983,0.10743153810273919,-0.012308101419631456,12.359036450166965,14.328001164201737,-80.92479791811547,140.8098926388164
-0.31777989926710715,0.12292878770893544,-0.18626112345285195,46.51964867288186,93.50457307874458,-131.89141581266134,242.37041837972023
-0.22973132547013037,0.13969385023322486,-0.07227693543539643,-23.22538058031747,94.4375408179968,-107.12419080809792,214.65784871345363
-0.41636945977518813,0.012648213375455152,-0.38799410114828736,90.78988628296996,192.70757463057913,131.69482158469523,282.69009901546207
-0.4045314376900886,0.03680228035982078,-0.34604693184811053,148.11430242084177,109.14649270393264,165.2375247485313,315.58670057168473
-0.3734977112757828,0.07822651844837579,-0.27177851849269963,269.7395246502006,-57.85672022978122,-69.00191478072213,325.5715715124438
-0.27587943121389435,0.13944081288620955,-0.13230947534797666,-0.12766540607413646,96.08292256634276,-106.64753348204786,208.2433671598822
-0.40279743084007097,0.01157276014309826,-0.36359617016771195,85.49279199933615,189.96282834476696,141.71713475052604,295.64451611859243
-0.15906222538189446,0.11677648679177824,-0.012819958383881946,0.9130681763800297,48.335400646190294,-90.64510565258549,164.14206246207885
-0.21231278594083286,0.1329030853599756,-0.04235582243286634,-28.587255727254007,102.65277440000436,-108.17331541532127,222.2471212383782
-0.39234650106316993,0.016857755963684738,-0.3351911924953015,118.13875505042606,148.92732238501318,167.551502662996,320.5659721055234
-0.30468073566310333,0.1235945542493776,-0.1544309997704998,4.034753092468961,129.42911664141064,-122.98463588297372,248.23702972818438
-0.3598051842646437,0.08355281836482725,-0.23964876565114274,164.16057924890626,33.01033530987448,-159.88049735042475,315.12648658910706
-0.2632340342170321,0.13222919785668205,-0.08644297076769503,-38.977790505176685,143.3044641005535,-112.77740676285232,256.50995963595994
-0.3837080056015146,0.040954855750972574,-0.29341664039078247,273.20555321361974,-31.71727120194427,99.8747906462232,337.9904076217135
-0.18804450346433627,0.12286032713168415,-0.013481911048577544,-14.16319216421805,94.67970084891071,-98.67312211274346,199.28613510408277
-0.3850627169269641,0.0172753787016281,-0.31049866542979243,94.78301309599617,150.4981570509222,173.40735265202227,327.99264613394524
-0.3475102396796024,0.08880225234622868,-0.20791173261934248,57.55686528106609,123.73178226867255,-162.46759936980737,301.14431041662647
-0.24129124666331359,0.13031727300993812,-0.04674323841206912,-46.23856828934701,156.19037492944682,-108.59572359229671,262.93449998615097
-0.3745869686859008,0.04772992158633492,-0.26247250956933565,277.1146081222032,-54.8978736083626,-78.13543644180837,336.6522309105069
-0.2839112871853462,0.1240335888972449,-0.09587055470900402,-48.50648082529747,173.65682577252613,-105.69176139741927,272.84665765009566
-0.2968840817521531,0.12107501881579648,-0.12059389726955638,-31.926311153367678,164.35324600943608,-111.56444912237045,265.74113458927854
-0.3355115532382309,0.0952783814699732,-0.17700725217589158,-0.672316507949219,168.81845315131753,-137.6775362556412,292.3678052300915
-0.21765473990135842,0.12580743199625247,-0.014309160367937945,-33.03103878342345,150.03155812461642,-104.22277017031794,247.27186179888844
-0.37821862652708504,0.013492241291398348,-0.28148430061754803,160.6629478303968,65.20498290998479,168.46524314959436,323.6199349277656
-0.3670972348272362,0.05129884076889064,-0.23072765439448928,92.10833178167768,114.90286241110306,-180.3271250262551,329.6311842968533
-0.3238776768469056,0.10145144022524408,-0.14534222353137088,-33.59173622466837,190.20713280493206,-115.31903759702155,289.12278921351793
-0.2695555779116923,0.12454180376962733,-0.052565417833596306,-61.59199099837557,201.7412510755963,-105.75871079457494,300.78807454374174
-0.37499700427641264,0.01599078351280194,-0.2531210541003415,251.57184172988138,-40.194048548418806,-97.80764277106832,322.04758788614123
-0.24762911376502517,0.12570789056577153,-0.015706891169095905,-49.986246236968604,206.15100094583966,-105.2954098803796,297.5952699972601
-0.360807462809544,0.0566853347413426,-0.19958328946830312,-23.105607109071073,218.41140567468813,-129.07416516353862,321.3477239289623
-0.31566243444369846,0.10467897395679056,-0.10936229755616328,-58.05615349015115,216.81561996640815,-99.94006625253226,304.84596349468626
-0.295197039260526,0.11557304659490318,-0.06392174900462749,-72.294777849409,233.04657717314404,-97.81694813423441,324.17550584305053
-0.3529648967403296,0.06688977012222042,-0.1684127742710924,-55.083604643552164,236.01107987670858,-89.44239683484673,309.41170209804653
-0.37369973227143216,0.01740773244740198,-0.2227473548482281,-65.61788739509447,256.85823841816483,-43.572733988776896,304.6836165537519
-0.2774748160748485,0.12242025653634388,-0.017850662128721106,-65.78091304293733,257.31238086064553,-100.77705585667778,343.4109465008673
-0.3416310026561977,0.08094151868026801,-0.1394270084405293,-60.88529311817412,230.45817190674774,-87.01431165587468,305.88228546868163
-0.33571844063312983,0.08779227568889432,-0.11024801059139161,-69.65186332434936,243.10262784403992,-80.82128359041141,316.9843219801572
-0.3181260558124388,0.10366551172579357,-0.07365475488243117,-78.56190257200444,253.65270695835707,-80.2209645579228,331.27830746674834
-0.3743511593609635,0.020142653762223264,-0.1920898398057322,-69.91572499119562,244.73266946060875,22.26622510295075,288.75647950779387
-0.31329257846988573,0.11046105737224005,-0.035502195781109136,-81.38521856539928,281.3448805176628,-87.3759548541565,362.7388628857524
-0.3441430292889971,0.0830043221714251,-0.08951688745478359,-82.08564642540772,260.2511359183822,-55.22823572194992,324.0093577098818
-0.35357825446557145,0.06897734998015516,-0.12217556117186135,-75.40228517172638,248.65898314244808,-49.662224367548575,306.0478061535015
-0.3660703096216362,0.04667726936702176,-0.15581082919902234,-73.41861523811862,243.59635172233598,-15.499111115842446,288.67741476009206
-0.30513589844012273,0.11737977334145194,-0.01461538861290751,-72.88598250952666,294.651574739787,-91.53906901054441,372.4863620749833
-0.3380848788826182,0.09141043333599677,-0.07159082375687043,-81.30876922726065,267.46109611823226,-68.37671341901446,337.5197938573734
-0.3756707078543375,0.02412502647944608,-0.16920412100398452,-64.46920283153497,225.84095805318267,51.6297491766952,278.7778613531878
-0.33779302894042285,0.0990508421154372,-0.040378062233931866,-79.86647225793101,283.5810331181082,-69.93201909398789,352.3023337040913
-0.36770653092244704,0.05135492200096315,-0.1273899327855656,-73.53348452027986,242.59161612788932,-10.020972028435779,287.05005147484184
-0.36173374277208264,0.06613588663263612,-0.0964131425548409,-76.1443008911196,251.38528069269927,-29.888570633887042,301.35369638253746
-0.3781385023999518,0.028678155984875543,-0.14625843966611718,-65.95833132515664,214.80765119893698,23.802405878681252,257.6059904012364
-0.3567309158105746,0.07789151990641155,-0.07071225934185937,-74.84778481907402,265.94968672635724,-48.81677717943168,321.5375637301548
-0.33408284038365327,0.10935708747518208,-0.011289879195635177,-73.59109519736377,311.9227097542864,-78.61157876326442,379.74399393211
-0.35280483455199074,0.08875245696700307,-0.04700393196886066,-76.18197764913845,280.41209558381036,-48.587109518641256,335.97486022123894
-0.3862140269787868,0.009261668977690192,-0.15368563078514458,-34.548326410650475,185.05881132714174,69.26413066953566,237.1210284194721
-0.3832888982687653,0.030377770203279312,-0.12454226230505921,-56.31352868059378,205.8038272674763,27.91385640813951,243.83092235917692
-0.37765697670918363,0.04881782246240362,-0.09929480696906401,-67.50232667391266,227.79502667357457,-1.1951924997118244,268.0076828080728
-0.37341112203774396,0.06353167170097553,-0.07331340173933198,-71.5131902994883,245.961544374099,-24.09920709444225,291.44987180409964
-0.3650044149080407,0.07746853735903289,-0.054600601300613116,-74.79741169629533,265.97155784729546,-32.950336148367384,315.4150922972183
-0.3598507596845868,0.09822470778807647,-0.013320681232882214,-71.7092111325124,302.7625766468025,-63.83424811096446,361.5835837071751
-0.39509353247130247,0.009651236620894675,-0.12816211891389823,-37.69226298446466,164.19434031940114,50.14825265929602,205.21668078407927
-0.39333938422353754,0.029854549232882704,-0.10011800676546312,-51.31052582474949,194.6717419954843,19.328455870756855,227.24289704195454
-0.3765809017985825,0.07645369971342057,-0.03786932080291866,-68.53315490152563,264.699678662588,-47.34318195143685,315.6383182011677
-0.390301477214662,0.04754082560834261,-0.07410663456253314,-60.0246080144679,221.89838412359208,-7.107162875579605,257.51261185121444
-0.38363794818014246,0.06481350140158905,-0.05216115947389327,-65.27143284180022,253.67449882066,-31.460134813745128,296.8804970995598
-0.38704661417193603,0.08539877140511756,-0.010652795679473914,-56.64400966294933,282.9892407153963,-50.85786414433499,327.23182380834743
-0.40712202186793395,0.00981733357297945,-0.10276357716787698,-32.732447930978324,154.95458488229926,28.128020261965275,180.3550275886389
-0.39307051758917466,0.07219959357851424,-0.02500982614729569,-55.64476963102172,266.0279407104821,-40.193191462137364,305.80508011139256
-0.4068179450541725,0.029381518827782577,-0.07563960418735166,-43.514706102375555,188.27580763948714,2.085428313393593,213.41771917731637
-0.40293436418322837,0.04986426106920404,-0.04966060022349278,-47.19752246368323,224.01305614204082,-22.779032988462035,254.0452119798711
-0.4222813350377451,0.009797970894516764,-0.07795978602940445,-28.43193662333462,154.95319421286024,4.628575429157914,171.13958614498054
-0.4142255662813653,0.06915601205729169,-0.008173757919616498,-32.68001611992687,259.3652433980401,-47.9484564751084,289.32946048882764
-0.4220371863592068,0.030079466012309763,-0.05233827880724223,-31.26833735467524,192.10401633504281,-15.495727272471616,211.20792573679805
-0.41770264415366504,0.05118381600557971,-0.02899503396675257,-33.24607403958596,230.90569353692814,-30.801741029701784,254.8444433015727
-0.4397009977387149,0.010000421843908832,-0.05435014628482543,-16.44919474082191,162.6972702980527,-17.031147943305,174.03274649844536
-0.43593433696659023,0.05122662601300194,-0.009546188217151419,-13.972355878796925,237.94587258491458,-41.06003240698366,255.33489421627255
-0.43900714089274195,0.030769843569185096,-0.03084698124524754,-14.547600828437993,202.51293647097947,-29.798855904288175,216.40959990247833
-0.4587880078167195,0.010211353870668651,-0.03205954509710168,3.0211556476142505,182.34105129940139,-34.5678826029225,190.50281151846875
-0.457896089346543,0.031251033993347,-0.010146268118592094,7.7346070687734105,217.12002136104695,-40.379563032697455,224.52865541501197
-0.4790578914247237,0.010448844544102743,-0.01053844674455695,25.15502580868763,208.3516186984433,-41.49313740059368,209.68338834082616
-0.48240058283853254,-0.008748472371977178,-0.491129970611168,90.00885024683375,256.52670029849236,69.32875547054537,255.4159289131985
-0.46217153186154386,-0.02706961098404087,-0.48960185024494673,102.65434174582495,284.3438666535661,62.25162197317317,271.70942058908764
-0.46268031547150007,-0.009879419501288067,-0.4719293613372463,93.01246145294647,250.59044207924103,70.82181129082764,251.36833666190714
-0.43964239443320186,-0.042018055005967836,-0.482868135958252,108.83307640442925,305.8209269172287,58.04998483894893,286.70027515563316
-0.4414198073414207,-0.015603542108289292,-0.4546794066059819,87.97075702282571,258.82667443319525,75.6479746274162,262.9235082631796
-0.4189468296940698,-0.05956323041922079,-0.4836479663314624,108.54213921298128,332.50415007274916,41.33340626504793,302.2830552228419
-0.4246702545423885,-0.014775007581749822,-0.43220623702243705,80.63869615166338,252.2782321428514,81.61561224009533,264.1719941755623
-0.4027739759988703,-0.055738034699648165,-0.4601052676756099,91.35346161896823,315.9140729557248,32.941431748759484,287.30249925742925
-0.4068375717981498,-0.035248162774659586,-0.432497847946438,63.97498255097898,286.6035460097249,55.31459594254426,277.62933507752115
-0.39475206817541697,-0.07883199889126158,-0.48665793214961256,117.8002436320446,344.9722543188693,18.651901034122933,305.4318553803997
-0.40796832891887486,-0.013132924240427946,-0.40386050274816293,62.21069097951249,247.03765620787541,94.89259733967941,276.6644275214818
-0.3822719194900632,-0.06500507615613194,-0.44644433292142005,72.32421666310873,311.8249102561425,15.58421154064362,283.97478329931783
-0.3696853818243816,-0.09253995161748962,-0.48599462941299937,115.38680010865912,335.9596374168548,2.911837960285065,295.70782959925975
-0.39462746369362367,-0.01426391658549614,-0.378408608652261,42.97316992301124,253.48924345355854,95.94672100759793,287.79779944195826
-0.38515321894951743,-0.048370567353530736,-0.4177361349178379,46.16995647462082,296.283605762936,30.54743307980235,281.1328435914805
-0.36562950459782567,-0.08370132651582418,-0.46182301772695206,87.12751722422115,317.7136702784982,-4.5520386229265135,284.4534064250325
-0.36192873946525894,-0.07632506643480569,-0.4368834911429726,56.14637362536038,295.8280431737271,-9.275187175787275,272.6078902926719
-0.3803767174355194,-0.03948224107590592,-0.38642187181797355,21.13205014247906,283.19360726085154,36.64331139566816,280.5154506227626
-0.34082088745883765,-0.10625686668141354,-0.48786392195795725,116.36867363125846,314.83708444401776,-14.398834937302803,276.85531123653766
-0.3852892158177781,-0.012220386942676076,-0.34866471540706734,16.90787691942586,256.49160476499065,100.68569916276284,303.5620549085364
-0.34114943733144,-0.09795623190362862,-0.4636347740409894,91.4288682370306,297.58645006627154,-25.848960227071167,267.793665183434
-0.3629324511224752,-0.06717969280496072,-0.41144283373143975,35.24637861513966,285.6979812964157,-11.397777140325221,270.5282840576857
-0.374364993268236,-0.0363342832448279,-0.356415285597021,-1.9673804259514611,273.7980446298498,26.999058387228885,278.73778395461414
-0.3117174529798747,-0.11551418358320753,-0.4881109324574772,121.12476394415424,276.6807849782859,-25.567314769808466,244.27777877237375
-0.3410630658220998,-0.09086754493217608,-0.43759317473912707,59.54986496322137,276.5888104283987,-34.55738276934393,259.15124593871093
-0.37479378257404145,-0.02535257318130002,-0.32873213995178185,-21.39085113649989,272.91936178798136,33.36663884712463,290.03538017842163
-0.3606437630136885,-0.062067898301308655,-0.38260018408379814,16.994211470298822,265.6219759754998,-20.95273739414853,260.0900861752797
-0.3153675533151869,-0.10927970738761805,-0.46447310788872215,94.40163785831703,260.6069256063513,-39.463966765275465,238.53329392019745
-0.3756903729817776,-0.016472084843314028,-0.3038739128136757,-34.172155564480846,267.7193525812166,47.13284095834241,297.7489704715525
-0.34162439818384455,-0.08510773023066098,-0.4111330627051652,39.748409228229576,255.0616994888171,-44.15709317697106,249.6951269169832
-0.3592840721501507,-0.058483383741936346,-0.3513423738303257,2.0374577361353943,241.6228280106039,-40.47071951779168,250.61341417524838
-0.31865977216459046,-0.10402792700389207,-0.43927717096212643,68.3748769841372,239.1790589709509,-51.80623380711502,231.4726007594364
-0.28085661081152025,-0.12185331111000042,-0.48671836713876215,128.16669668017835,223.90414018563516,-30.367361385804784,201.56696659467084
-0.340720004234724,-0.08267363455469418,-0.38365855826960293,27.840527036848925,226.54952630665954,-56.26902904639393,235.1406717108022
-0.3617756707959824,-0.05272519342067872,-0.31958073471246745,-6.1585661432562375,212.06728534332856,-68.78954718197954,245.99288050255166
-0.2888911356642612,-0.11793644331847786,-0.46396307016408495,100.33294002787036,207.9624626787801,-47.98559973262646,198.38712858237676
-0.3743804454623587,-0.015174307527573538,-0.27415054105513104,-51.636702251851744,254.8208670418376,-36.46453116526074,291.1135837395864
-0.31966394879849125,-0.10123338607190074,-0.41431475174308696,51.85513490834772,215.56209700773806,-63.08237732658606,223.41918012739004
-0.2963257964389148,-0.11469142889072942,-0.4408467753742105,78.0898719397526,198.1175820825124,-60.96580367743463,202.55398161985778
-0.3451246695348048,-0.07899974176651714,-0.340801135557638,26.41413358033303,173.0449855743356,-75.48667065281072,207.76465642546648
-0.3345517328338585,-0.08935540654726809,-0.36014505369363115,35.1225265414504,173.98958770595104,-77.52255406067447,208.38486929927046
-0.36536256691887914,-0.04822308200222114,-0.29070454950423463,20.730187177781204,160.38633472679803,-105.84355246332719,237.56525647082495
-0.2506093083649429,-0.12514469921461713,-0.4860646186679594,138.7519191016193,170.23397552287688,-30.593837321377734,165.58792021989186
-0.3191030558445606,-0.10161439801381006,-0.3902080406987472,46.61303329489388,183.22056669318354,-75.11764015846188,210.07156910365575
-0.37541134866187525,-0.013918247390512506,-0.2448794565653496,238.39864275862706,-58.41151911981163,-39.864255869930176,280.9600007169385
-0.2729090302580332,-0.12296371375235526,-0.44972139408657646,96.92536583678137,166.56356427281872,-56.190279517731646,174.54442305751436
-0.29623879428098054,-0.11504471830813434,-0.4185847372937758,67.9832510521195,172.7706000861621,-71.73956624772681,195.36015892167245
-0.34858233697786556,-0.0794529325640132,-0.3107514188997077,45.37629377685113,115.27348708739872,-93.25342832611594,190.27587059628462
-0.370098147867412,-0.04565379314484613,-0.260808462069568,119.99889384550325,34.45941495349837,-116.31843276205532,228.12721785609253
-0.3782626565815861,-0.011324205015892375,-0.2175835586292046,83.98310815741239,76.143790796655,146.83020412318592,266.70878058894664
-0.2201877935304777,-0.12545807194661784,-0.48695632967488434,151.66952379594738,123.85092362494768,-23.178342023664385,145.4991125067638
-0.24908650444621633,-0.12794609240136512,-0.4585864085452815,111.61074899353957,130.53405847550349,-50.43566772202864,150.19442537280892
-0.32955417986497365,-0.09951933764770082,-0.3357270292128385,49.02801391509959,106.68302632935506,-83.07447584793431,171.05163830871533
-0.3160770291481273,-0.10696105678756207,-0.36673905362549397,52.036543211877344,136.00705730363083,-82.3954315172084,185.72938850934435
-0.27161284554072984,-0.12598305089360234,-0.42466577280450013,80.3527206986341,129.02074007578466,-69.36844053976257,164.83836091908648
-0.2965773934850759,-0.11720587595930992,-0.3955648357243454,61.08227993740451,139.9533809129234,-78.16062653267835,181.92463489077653
-0.3766496083186551,-0.042353019052879415,-0.2313575733338325,183.20818384727284,-52.547150469984075,10.087760309183835,215.07858651956278
-0.35559298239934195,-0.07824109662233242,-0.280714771089316,86.38414821825188,40.7065135225139,-92.26827941840006,176.47421899379594
-0.38456442660478046,-0.013754466996994064,-0.18906589114035266,14.053127434145267,119.67454522058253,112.51298085132198,225.4222662249122
-0.19020677973821676,-0.1226287819933567,-0.4876214418486098,169.19320134694857,93.98963406179978,-11.88890986264768,148.26335402223467
-0.3840203159530503,-0.03452429468428353,-0.20379228140282246,114.10833449965196,5.777375291033337,101.26656544225445,207.74887538735283
-0.22036999049506736,-0.13112595264524296,-0.4609631004487416,127.16733956488953,90.69284268119172,-43.424995431488334,136.09095167915257
-0.3318586007941069,-0.10564380769520976,-0.3099857290468132,65.58143191002063,50.9212440732439,-74.30864957908022,141.84405315406136
-0.2472096982117425,-0.13364723662982958,-0.43047801407076164,91.12292629493867,92.05946334827368,-64.6329313076075,144.64388069783786
-0.29688467451554246,-0.12143619565517622,-0.3734219355939149,62.81787149127703,103.08626233946435,-79.8525272740984,165.0044884778617
-0.2730158334388699,-0.13050398086362097,-0.3993486212051918,71.49569051427343,95.19336190134145,-74.65517245145242,155.20205891659202
-0.3118624667524313,-0.11721322629869474,-0.34252358293199014,58.61403260640441,75.67909921526241,-74.27315552428658,145.8649326671632
-0.39321863166784327,-0.015985369372989222,-0.16295843069775234,10.807722607382175,110.0478366279589,94.18004596879526,194.029920112048
-0.366697175830556,-0.07561914231013289,-0.24822570319387727,127.46034196796572,-32.736134482456805,-40.24421609961309,162.32419092576617
-0.16068626886450563,-0.11659918055000862,-0.4881655423608164,186.03422322042627,68.613322383628,1.1671754430498726,162.96067311189137
-0.3790810129982349,-0.07070964460273826,-0.21755800704172917,116.7660102389292,-40.07135816101058,30.24861712754489,150.54542179584365
-0.39170164055006373,-0.057960214443640024,-0.18876202962514133,70.4290237176604,6.711490709599943,76.35549970685852,148.40180173250175
-0.40531038765500327,-0.01446761794454654,-0.1342290660446212,-10.902786212160805,114.96627171324535,59.797403132255525,159.1123984013031
-0.19117733929176184,-0.13129242398628943,-0.46289721716438803,139.6181993434154,56.43897414192588,-34.41750420120031,135.47097561442564
-0.4021282066493288,-0.045660835438917524,-0.16342188193359752,29.769068073854044,48.609215905483524,76.56463686712799,139.24235377000127
-0.22108865430023453,-0.13899870603747966,-0.43466827151022125,102.3444693383988,58.28902031262284,-58.86460910386572,135.28328816179038
-0.24962524534489483,-0.1408155644845197,-0.40290109001526514,78.33448288187128,62.81644801470334,-69.809727957669,140.64742347593017
-0.27665053682899093,-0.13623811488384419,-0.37348216173202586,67.8174306249085,64.29470017974982,-70.27124845226317,138.51662743475174
-0.4191850126035596,-0.013749209178547661,-0.10854595466693989,-17.11310829996542,117.39593851025444,30.91393312994608,137.66149806238556
-0.13196398510488175,-0.10730926641462774,-0.48850641150073165,192.2164051517667,49.87034979441421,13.906514682928812,174.43758852042598
-0.2911845374897998,-0.13243155641000304,-0.3528652112136635,62.53187505847204,58.35013192701493,-68.39997225312267,133.0484826956204
-0.4166007909462339,-0.04386733639660856,-0.13767730431973874,1.5087092090518368,71.57815870334775,45.14857112770268,105.5125528278796
-0.310571215444883,-0.1283328724882899,-0.31934013708960596,67.20864983724364,28.088672697316127,-57.911277698791714,116.1004850689911
-0.43443382002461306,-0.011442164956866396,-0.08398957242599558,-16.4969911818157,127.06712031835775,2.2859649432296543,136.12533142148305
-0.4323070821886325,-0.043277530737174774,-0.11405357010965439,-8.558922678084059,86.6113844408593,19.146916958165146,97.03556307690232
-0.45051461451108393,-0.008367222645536243,-0.06076314257471105,-8.99011593948422,142.34135455052967,-19.510644384123786,150.87592390149157
-0.4474828925833309,-0.03417880752717056,-0.08821912144935434,-9.183726066965846,106.8652097017314,-6.3958685959546955,112.28827225649086
-0.4626325826376428,-0.024483360550110245,-0.06249267811182008,0.5974521915654094,134.60381486903736,-27.06931766850849,142.2545902927164
-0.46972417817549345,-0.008912979679878696,-0.03983833981971319,10.87683371789553,161.30998954453798,-36.94719608779293,168.76007288906865
-0.4892397392548128,-0.010924119415440858,-0.02162719059995294,29.054625534752567,190.51614896512802,-45.45456354098971,194.43135280882103
-0.4165267849011367,-0.0711113144912231,-0.15100427249395793,3.882827299730451,41.572784990893965,43.41196001823302,85.06319811248663
-0.34745182350800435,-0.10458457214383993,-0.2706485483433921,89.4014292101578,-11.381128467563599,-46.21846542447837,124.69191802045451
-0.4912644952329008,-0.031247251120144426,-0.03906509415360193,23.001733890724836,160.0480755290437,-47.2307918916504,170.7493077808097
-0.47564765862472,-0.0389451837580288,-0.061276728240805656,7.578457466014182,137.36716950187568,-38.565287229344605,149.49242509394932
-0.10490215441257066,-0.09481542223062522,-0.4889415160439318,201.19540410002153,42.00826311757166,27.876010606800605,190.06217727285355
-0.49146628055401353,-0.0527081571389752,-0.05768677290928115,16.794874299152653,138.63817210757438,-47.29422730325493,154.5458886644306
-0.16158540514000402,-0.12811177245127026,-0.46463122530397544,151.36414430504135,31.86482728352945,-20.761909636394712,142.81613970086374
-0.4639267617236393,-0.05400765202289032,-0.08545243841997496,-4.287786845096363,101.9661843227696,-24.86012519579511,112.72433011293379
-0.4021166178554043,-0.08710747694448362,-0.17573206926249402,17.7312057698669,8.86249225226625,54.73433035165128,96.03820859609543
-0.33184512900564506,-0.11888039324748073,-0.2876238820748559,78.2266076472246,-1.7385209379679623,-42.566158305348104,108.13906182769178
-0.35971112432285685,-0.10269064981051601,-0.2445653000504952,92.87112252324715,-39.56576594186632,-15.811056628971638,120.89243510237257
-0.48705882355924834,-0.07235742998581424,-0.07690615594524758,3.3724894175162135,124.17019016592052,-48.0852040320443,148.1465750492281
-0.4495168755850427,-0.06734480832303863,-0.10959752983154286,-10.4935076764312,79.23406037659682,-3.3773579337583612,85.1693189344162
-0.19297930530467264,-0.14173056362623826,-0.43830236807106127,113.30563377252007,27.31154921112895,-50.65675998739576,134.86236305763697
-0.3836769431665621,-0.09902176796899126,-0.20328887563413295,50.082416497525095,-27.971598992719976,48.09072011394517,107.84106892334522
-0.0798864960429509,-0.07889482542603632,-0.4901996548591351,205.3912498713374,36.97740449707905,37.072520343944646,200.20283198385147
-0.47415666071381174,-0.08565400858974598,-0.09678543116915106,-14.994197252213986,102.61108101675605,-35.61060909790137,126.87307487668268
-0.43593584967984794,-0.08678249562661422,-0.13301366167303114,-19.7282506005791,56.315893172671586,14.174515410579964,72.62539783213046
-0.2242378254632002,-0.14856371773445676,-0.40817387243707604,84.34872972270077,33.13504432258176,-65.33524582630112,134.99564256570326
-0.05530242174752668,-0.05995871128012087,-0.4911233478537375,198.31359976843606,34.251323730911025,47.91957601738934,201.488935233633
-0.03236790785187665,-0.040671203183080096,-0.49059797719587434,186.80695015139875,27.381725525262425,53.88583374673696,198.09731981552383
-0.2558694978568258,-0.1489834454659837,-0.37366452666085004,69.07516785295483,37.23808531776439,-64.14877490488203,126.21815552285426
-0.010590147337376454,-0.020787442099515996,-0.48974592507120324,169.08750872397312,22.397101518154415,54.335754462124825,184.8303771122499
-0.4874788986569978,-0.10588054794430912,-0.09648972279216816,-18.45016087908715,117.04089194907954,-48.58395619278208,152.5765529451337
-0.46034377788883746,-0.10105743323219074,-0.11560597637361741,-31.80567541818761,78.9944276775744,-18.699595079206727,103.98661590729807
-0.131938884862067,-0.1213801750962395,-0.4657937347500473,163.272673709568,12.506161776736576,-7.291799060021162,157.89859591560642
-0.2867363880670863,-0.14568247877692603,-0.3326877748615813,66.74707798319002,21.010233910098776,-50.52918812807272,105.61168110419975
-0.3674082971127167,-0.11580587559596733,-0.2228454437670906,58.23644552408493,-40.64342908848607,29.128049126318636,99.77790585640606
-0.3120502660098147,-0.14137425495799766,-0.2953895801726673,67.7650603395382,-7.2896971196967115,-29.996866843218555,88.5362406775933
-0.4868597537783671,-0.12980772835983634,-0.107770635135784,-35.70828206293561,117.50461682302296,-46.806569956951186,160.7820554577848
-0.16350002232917488,-0.14117789746153042,-0.44160544316041644,124.17416423751412,1.1521242890158305,-41.489397037566974,142.97411158457606
-0.43245213392617626,-0.1148883999545699,-0.14434337059271646,-38.52102922633723,43.41206122469303,24.94938569950051,83.11539912670868
-0.40966835032365806,-0.11595075364564705,-0.16690683696223801,-23.4758780509053,15.268797231204275,47.4201161673078,88.8183747481075
-0.4587401744240317,-0.12315511642861576,-0.12451663732987078,-49.01813179927406,78.66154376760065,-8.798302122858018,112.59879215010716
-0.1965766600082568,-0.15365734203828874,-0.4138228714644948,91.46340244265218,6.013144827524229,-60.91295229499262,137.77841806202332
-0.10258805178663484,-0.11088083587077013,-0.4662787274902406,168.08125077663124,2.6117245393377573,5.572142702827453,167.06972306002152
-0.3488804984985539,-0.13212251974583278,-0.2424613629577223,54.36140597253764,-43.17949216946397,17.958317017668733,90.19108801404585
-0.33560462312804706,-0.13276831732276673,-0.26414192687838267,62.9805308177702,-36.50194970552454,-3.5289535499973113,87.37970188896473
-0.22946204469527773,-0.15931361230118696,-0.3817315514822204,71.43748348442102,14.665946755730033,-61.90308990428853,125.56545436854141
-0.3882595336475884,-0.12765821125806576,-0.19031409559633183,-4.286570283588798,-17.639031352628223,58.57678092685244,102.7015917865204
-0.0550176619247276,-0.07562358175375367,-0.47426971949948227,180.1446752157751,10.737574196758516,35.81985816483889,185.69402092904113
-0.2614458202231989,-0.1595664694328771,-0.34564076984976944,64.20412486033618,13.583538450524031,-48.61118570400578,102.58511146284283
-0.07842503889030669,-0.09467453531517983,-0.47080805805398035,175.5458652338018,3.9121093384397625,19.10454572575819,176.74798947545946
-0.4872443476453615,-0.15564124871751972,-0.11612912601600384,-52.10599092623017,124.95354045370416,-37.163253955085494,170.2426854258104
-0.033027497566962924,-0.06005888414564503,-0.47187081083702037,166.94120990608275,2.8922708824507595,38.491529402631286,178.43678741373
-0.1330481729657431,-0.1368658790055885,-0.4441249124181542,133.06689740571804,-16.611795216764136,-29.437425843025235,150.9732330452401
-0.28947607862941926,-0.15940148079907135,-0.3063521012863354,58.62994112078059,-7.267602959404627,-24.390823452149455,75.50578777963065
-0.01084642172255185,-0.042072153319318795,-0.4693732806713063,148.28967901657862,-0.9872726262756828,43.73754431160452,166.96144554405217
-0.46009049573745125,-0.14806556628248807,-0.1290995927272855,-64.62040420806548,81.23314972908405,-1.180351587603262,126.60221133582282
-0.3676517174983671,-0.1415942429965828,-0.21059367605866658,13.811022385184799,-38.40374683766069,53.510124960852195,103.8556090816628
-0.1672462138880786,-0.15564780923145777,-0.4189451501278576,98.6818294027061,-17.972289683036024,-56.20340403712309,145.9832625723697
-0.3174054350040837,-0.15624061525090122,-0.2687908054233392,49.149065440722744,-32.61115315095415,4.751383897201929,71.76107991565401
-0.4350238384148951,-0.14484524133286936,-0.14541550186151803,-66.4455311694813,48.520016697674734,30.596511226417864,113.14406043735212
-0.48824112403276454,-0.18199393639052358,-0.12164698719681993,-60.20558173730987,131.53972368272684,-27.512011109010395,176.40172570166803
-0.41214541204370814,-0.1477366726547048,-0.16325538159753816,-56.91452137929488,17.194956520126496,52.35042191789634,112.85066246588597
-0.20167655859383857,-0.16670269549459776,-0.38952007065929434,74.9664036889478,-6.649766958517091,-62.19084440421392,133.28838501547662
-0.234697636466614,-0.17167730460956976,-0.3559715292809897,62.90884898391678,1.6530893229192998,-50.17676795350437,106.81472822133571
-0.06252836579791583,-0.0965842261981375,-0.4581197522811557,155.22312983678964,-12.54256646476901,15.570773798857426,164.09076580595558
-0.46261852063359743,-0.17243353053170646,-0.13074924878451566,-79.77534856396359,87.40071772564107,7.150943826642093,145.35756743836234
-0.10194792489633633,-0.1285025408767836,-0.4452735316929982,138.64402668273448,-27.548403460920014,-16.361851451470795,156.8554519336543
-0.38930420901801366,-0.15671444756504033,-0.18183183600427638,-42.08743698631711,-13.274425599471343,66.57289081881487,121.1805493965403
-0.3459104828512202,-0.1541975621931319,-0.2313715556766862,26.43624647382692,-44.33639309903728,40.35131823981742,93.38825058569724
-0.26491685128083076,-0.17393808377607933,-0.31889911667393384,54.79672870459726,-4.997575741949333,-26.351788862396052,73.38091285122398
-0.03663665185801729,-0.08237098114940983,-0.4539263407501577,143.89524193114025,-20.358788799806945,20.206370184222727,158.98033199001463
-0.4744988382832651,-0.1965651143547094,-0.1282214309392976,-76.55605476294663,115.23913182470821,-1.8117612371384482,167.2512712888238
-0.1366503482952444,-0.15409881515859336,-0.4230192926928922,105.78530788641356,-37.79935689321576,-50.17654550197744,155.47024316105413
-0.2940328966787657,-0.1753743106521553,-0.2798651726689263,42.05777193460282,-23.414349789810245,4.116240627163641,57.902276728481446
-0.4391227418594832,-0.17273591562715485,-0.14303970232236635,-83.30925090713328,58.22877377866061,33.121039310034476,135.9155128826206
-0.17250388991711083,-0.17112608362445358,-0.3965602609526264,78.98164861719978,-27.98281706421801,-63.14936193059728,145.5843179417016
-0.011863948246234369,-0.0647232356253159,-0.44998244983910557,129.6075626167609,-20.545651238002506,24.745782262544157,147.37766815545191
-0.365288035140614,-0.16855138236436512,-0.20054832984769289,-25.268202798871677,-33.82579176688566,66.17371800596442,118.5952450958395
-0.4149842717107581,-0.17644000065539256,-0.15740550548106852,-80.90414672458456,21.686028845211254,59.03620879507571,138.65812745945445
-0.2070618552856953,-0.18098662360774137,-0.36551653897073355,62.55836142317229,-13.136101329186204,-55.07269090881144,118.35067624875656
-0.48544803802948583,-0.21929345201808859,-0.12598770161054074,-66.23048915637929,129.4302880117345,-7.671925104652928,172.87996916877404
-0.32375271214061846,-0.17279473670021256,-0.2444882140550797,20.47948203175161,-39.55476648898437,35.404105075895984,80.95926033841623
-0.07133089014504641,-0.11812432247732879,-0.44292594081066755,134.943528502673,-36.31590886214363,-8.2672770146225,156.95299172549693
-0.23879842005852123,-0.18657119475421113,-0.3307378318176835,52.46747064897659,-7.293660513191867,-32.60478843673934,79.86194065946557
-0.4468586112254789,-0.19847889147112835,-0.13806194386280785,-92.68672503657598,68.98534316353785,34.78484945934243,152.8848892417983
-0.1054904728127714,-0.1488746337111203,-0.4253667577711665,109.09863201611165,-49.56767979803604,-40.91611626529907,157.44719164606389
-0.26865467484569183,-0.19076146193329874,-0.292927800767783,38.27988128528459,-14.928882162199614,-3.0022906838547545,47.81984858581644
-0.39000355828358074,-0.18401553791016761,-0.17299837302399362,-70.62190786637444,-7.491101346975185,72.94609991299951,143.10113583925707
-0.33985846101319966,-0.17913424654600146,-0.22085196429009435,-7.848992902377148,-39.183373011326324,54.35933511083586,100.76807696163335
-0.14201761372530194,-0.17236426011295902,-0.4023980973634803,81.82766034709786,-46.521445274790324,-63.71593962436583,157.62586963371356
-0.040880042088024045,-0.10495586734461337,-0.43779746270136194,122.7600357417266,-35.044042412560685,-0.38201889050807125,143.52894132655612
-0.4876739208288486,-0.24554611597413473,-0.12572526344818957,-49.88847532472731,131.59559967476895,-2.385354312155437,162.44517658825373
-0.4547312071652359,-0.2213091988457936,-0.1330405209787356,-92.17067216454448,79.4788209164312,33.54971127254616,159.7331571955448
-0.1783962745957891,-0.1875308484543346,-0.3743389441216831,63.48139948965319,-29.5422399841965,-61.839254538364756,135.09365258326085
-0.30038537646605884,-0.19359623739422654,-0.25319630230845697,14.507111275005895,-29.417689115617037,28.87100365813655,63.27105939200548
-0.4199994570324839,-0.20215235505548357,-0.14959023449908648,-97.48070208826914,31.888197669008377,61.59717096410293,158.1469656352813
-0.2115809047955411,-0.1970879510270313,-0.34187344274342085,51.15899983959322,-14.076353413887233,-42.40225086572548,94.49535325878739
-0.07450590921997137,-0.14003247503789612,-0.42535083299132465,107.30692561236657,-51.88318792150008,-32.54078229574425,151.4951299460071
-0.36317000183047865,-0.19371695142533596,-0.19012301078681693,-53.864395363728754,-29.01277552979377,74.71844485413735,137.5823267152022
-0.01307586743672417,-0.08822353316830606,-0.43235294927627493,107.44785497709555,-29.328394784193193,2.2179902261878226,124.78472595317841
-0.24190685793491976,-0.20414315900874158,-0.3061014659017621,37.55486173652803,-9.595018719683281,-14.384514468142546,49.83487127615081
-0.4600513475045377,-0.2427697967637169,-0.12885810440640783,-88.3150634309666,86.16249655298051,33.88235768830419,162.10186635896426
-0.11015886969760232,-0.1703033886376727,-0.40638021638609056,83.54807018992986,-60.36950571161742,-61.523024255115615,164.38905223079385
-0.393007120974272,-0.2087099010801719,-0.16232938291419358,-92.35055721542453,0.1783426340618064,77.02998474002729,162.31445688191766
-0.4734625562181546,-0.26327728443347953,-0.12467602471291495,-59.70569393832585,111.50484369568863,18.534142669274686,153.90294818504202
-0.42635487562598073,-0.2254993154013753,-0.14125852108524178,-106.31279963716044,42.42773121163248,61.84753285126041,170.55347134896533
-0.2719197134147317,-0.20988576327886527,-0.26817477459817096,16.13264314338023,-15.881445986429185,16.297926932880607,39.567151388999385
-0.1487664470149891,-0.19125333719378973,-0.3820228234202323,64.58452568918034,-45.942941375987374,-68.29628505549185,152.45414246733597
-0.33353769717521936,-0.2030348910561957,-0.2108458244188735,-31.74344307861263,-34.9231706316382,62.89740837055378,113.96027503291741
-0.043364630934620285,-0.12756279488461514,-0.42247710316325565,99.45337676564212,-44.51716571379271,-24.540245585844502,134.5615309358179
-0.1835210572048415,-0.20527627025161205,-0.3523720625065706,51.225702581087006,-25.10323648988944,-54.28150836208829,115.67031798883173
-0.21451287748903228,-0.2155744268804069,-0.31883175646622364,38.5116775378146,-10.551235759329927,-28.417446554875482,66.50922851839407
-0.43375564294903174,-0.24783223615918676,-0.13296252104299938,-101.46345237215166,55.658572031269394,56.46969533604535,169.13455931378988
-0.07750283216146665,-0.16263412041144554,-0.40898072265552526,83.57404927211223,-58.78644757190128,-55.83860781016516,157.1856862513256
-0.4846095265553527,-0.28412611793993603,-0.12100341157970146,-26.866178828683875,118.32726593620018,12.512967144458763,135.54282701794722
-0.3038580765670846,-0.2149309011913173,-0.22980798696120414,-16.572502542237082,-26.7145986391712,46.71500144619228,84.21676761462172
-0.36475999153616206,-0.2169271163592733,-0.17667470501535343,-78.30232685069359,-19.68022582396918,78.44793952269796,153.10060695445335
-0.01386754253424624,-0.11262962970474194,-0.41660022622259135,85.33271470355106,-29.79043564097563,-18.575914521533917,108.38097065784486
-0.2435412316449957,-0.2244247073899926,-0.28236883884162856,19.58500209930142,-6.278148358527687,0.40695697080833426,23.376095583973896
-0.11820873368593691,-0.19259221388399528,-0.3876573620218577,63.527774162857675,-58.62172987045784,-73.57683260361391,165.64131189796566
-0.39829353854278327,-0.23160339102509525,-0.1506269060815525,-105.91860982171713,11.832038706068616,76.4062541220638,173.56765005180765
-0.44397356529188264,-0.26976281831996324,-0.12479979130142999,-83.3555041399815,65.98429286287285,52.92042000167592,158.7574676398252
-0.15495318433164892,-0.2112336346498272,-0.3617321636763946,51.642458243331305,-38.04500305224326,-66.15195454257376,138.59057147425483
-0.1865624106002876,-0.22489588281714856,-0.331220219834949,39.98684305974838,-16.234674135056196,-44.25774339179171,91.58563849928714
-0.04430671131531448,-0.15037585392166153,-0.4085568378999117,76.07262989828334,-46.58309120190967,-46.724005720486474,134.35075658064468
-0.2732339231460229,-0.23126345657469272,-0.24527072877512535,-7.640512308005173,-11.309959744134574,28.669475208842872,50.65269151156716
-0.3352940722327057,-0.22614836173168507,-0.19274048696947266,-61.91522317895605,-25.904077454549324,69.85033128837058,132.43060709863568
-0.40536561169289265,-0.25344840926202006,-0.1386695655047423,-110.86689600177095,22.231011126549916,75.49700041814764,179.86039280445002
-0.48641749199936474,-0.31158152455171306,-0.11530111133171167,10.91075554121052,112.47359982606504,16.958560550362954,111.37756335812308
-0.07250593026034631,-0.181516074520437,-0.39661467479378243,63.20859211780973,-53.83597213151273,-70.31074187951856,158.51604110477928
-0.2154207097953168,-0.23673826027897155,-0.2965599689234011,24.10467225438767,-2.566071619195327,-17.23441252271884,39.24983042534094
-0.3693617325842169,-0.2389601512838498,-0.16154201813433278,-99.48590394963306,-9.659099499674,80.69005919142744,169.004307636533
-0.4528574158349264,-0.29147746181734163,-0.11712943130428399,-60.40838551094501,73.36769351956934,50.32558460160638,145.12756045313978
-0.09335050800929544,-0.1982670464930381,-0.38714626060387497,56.15893669674184,-57.288511168805655,-79.81851605025793,169.60556614811443
-0.12672001849383088,-0.2160562669654404,-0.3687552376777413,50.69074440306686,-47.415311764625,-76.92471675320223,158.03011406060287
-0.3053124444923995,-0.23771149340617082,-0.20865611161014153,-46.612992715364875,-18.91183238757516,55.11757260228151,103.74358687420381
-0.014176411913204323,-0.1380699690794499,-0.40305625178069493,62.17023854719691,-23.142644702640837,-40.960516891355425,104.2727008312592
-0.1582388390591118,-0.23253166877914233,-0.3425974787682676,42.09288416061935,-25.35523091042387,-60.441599772382524,120.17293529823209
-0.41411897219670607,-0.274802968083407,-0.12681296994213354,-104.98594925750153,34.0847017766248,73.34231723536372,178.60436080968495
-0.24306254186782145,-0.24749854654346443,-0.2594385091560917,1.0807116659534461,1.176773905110096,10.038550389235379,17.424077105915458
-0.04267051289302926,-0.17312187815380553,-0.39653516843577297,54.548540205273156,-38.94642293154659,-65.41466305012978,139.47785501902547
-0.33961576111605996,-0.24767852688031033,-0.17396168775417253,-87.22259430944197,-16.370421398926723,73.94463661994513,151.16656007550722
-0.37577464737845134,-0.26011167729180473,-0.14602018134403155,-112.68747365941822,1.796139104000261,81.0766190954553,180.6221185382408
-0.18726044862513647,-0.246625522866238,-0.3111954558537955,30.03512224345811,-4.730728585899811,-35.89441278795343,70.2267967423193
-0.06778167619877616,-0.2023466247973123,-0.3856625382047371,43.33172393904286,-44.88583706452701,-82.27821749606572,161.69870930825425
-0.2739270188456404,-0.2533915595396641,-0.22304125961546117,-33.17584747642422,-5.112822676174886,36.88669388693357,70.98619685504512
-0.4580307449101844,-0.3149237579847812,-0.10863854276719109,-29.996731672647705,74.27632971445664,47.13044971976126,123.72817816215512
-0.099445336521331,-0.2215427245827803,-0.3726928239424283,46.38597546976524,-46.25390484161527,-83.86860401508909,165.94710948691556
-0.4878448165967936,-0.33913926311773746,-0.10705934927120958,49.55891848990019,101.23682622939597,21.90061498030905,95.53378762070452
-0.129905645114341,-0.2394982355488277,-0.352017357221916,43.11450784243003,-32.394888772896124,-73.84984823748162,143.75805906193278
-0.4227004527768372,-0.29649147962632316,-0.11508626639101921,-89.32701463110902,41.34333662877355,70.79073233912476,168.56941364842137
-0.013874347938393686,-0.1645622687620349,-0.39195660473955246,40.01289992715823,-6.943326051750134,-61.60858495025288,115.38595133910184
-0.3093839277974003,-0.2585151015473184,-0.18706571795458876,-72.33244627104696,-11.451278231787953,60.36223773086425,124.36082510538525
-0.21420105907268375,-0.26071257323870933,-0.27477633002842095,9.884988889907127,8.526886667862343,-9.515076700938765,18.9140866947649
-0.38384341174139014,-0.2804285552943913,-0.13063857956967406,-116.01214412087654,11.64695545093106,80.67767792970191,185.66723075849433
-0.15885337362860663,-0.25525005730369715,-0.32512763272773415,35.392101514574335,-10.07051340205625,-54.26124674265641,102.68048216010045
-0.3456397597281324,-0.2683670901045861,-0.154683884263838,-106.67485857328178,-7.281081573456305,75.91017125643505,167.161280067915
-0.04120412965422729,-0.19809882739056872,-0.38610328061913113,34.85106228092132,-22.69630439025042,-81.09777918772201,149.1685572112182
-0.07104550887298457,-0.22533651450320946,-0.37553458780925963,38.146916470709705,-33.06425632401769,-89.24832444645452,166.44975805371698
-0.4630026920269501,-0.33947494416059054,-0.09874394763497929,9.64641109613305,72.01314079388176,49.954267020482376,109.86611722580581
-0.10169190811794598,-0.24625072037415846,-0.3594436423628511,41.294076787437845,-30.628631796135565,-83.52991739741212,157.60658691174464
-0.2410377563248061,-0.27301205817140267,-0.23594881709918353,-17.84177427314887,11.865777994530333,13.542362635351498,34.943080665924086
-0.4891977601905036,-0.366393384064085,-0.09605712324669152,95.3583080396057,92.45611420927547,34.343465605879544,111.19038734265007
-0.27829915248326714,-0.2727852470807418,-0.1997559398568623,-55.44228813067364,0.626100700458494,42.369229164261846,92.1651046253765
-0.4289793860208295,-0.32009304089811175,-0.10213677117226122,-59.03467203819447,43.702231512186046,68.82021685442277,148.94156971823
-0.18599835163800568,-0.27032819559440296,-0.29221116804786057,20.571515403213212,9.270547108459624,-31.45701106524368,57.33281540717765
-0.13047279479777035,-0.2641451857468027,-0.3371084115721297,41.02745639902229,-15.57248889533642,-69.97219022910456,131.35058589332866
-0.39361575101627205,-0.30055025609691444,-0.1154270164560291,-106.3279195321903,20.885559957464054,78.88805979018656,180.6447595633565
-0.31570211651217167,-0.27818961380734164,-0.16444097093059296,-95.05999307897557,-4.224243948455481,64.20304766204556,144.97856361507914
-0.013631239025312124,-0.19256727582205657,-0.383424034480193,21.809453577948346,14.487432120560186,-77.71408994956933,135.97063766338945
-0.3524328575257208,-0.28881586932785874,-0.13498820604401474,-117.74864368781678,1.8375430659175862,77.17640498720377,178.7542455966178
-0.04243829681217785,-0.22457832561901597,-0.3778193867583376,25.231347504895183,-4.101227721682548,-90.707252818464,159.50027463674974
-0.07302618802483314,-0.2511265786208551,-0.36592212567359117,35.02133694961499,-14.531569458680167,-89.25978609597404,160.77469883283004
-0.4675432545328953,-0.3658975840440542,-0.08591890343866643,52.98009347706156,64.71572286011431,53.76324704127779,110.62472707692993
-0.4385693048381373,-0.34182903144210075,-0.09099170238053639,-21.740969090933618,43.28979126137632,67.97480146578401,130.95632356313027
-0.10254262760791916,-0.27283491361561824,-0.3474920363355909,44.819952046420816,-11.879994231357998,-78.1806490776744,144.97953237185308
-0.1579444736202702,-0.27899686908598753,-0.3091931076127894,34.968834681231414,4.195052846979152,-50.632362809200146,93.72635834595634
-0.4908905768055096,-0.3917374365549666,-0.08335580703599238,129.4401797212422,86.308310687784,41.49953420090202,134.90276272137078
-0.21048901392494787,-0.2878140324873125,-0.25286860997357996,-0.7073458569296776,22.475077645945078,-8.78540568845017,27.44225146997902
-0.36493632442717794,-0.30552811565852,-0.11721943624393799,-115.84764515375784,8.670969666846943,79.05078044590584,182.33883757186422
-0.28584855234484247,-0.29035097409853255,-0.17458025488075846,-78.17390105229197,7.465390768964603,45.61014211869177,113.97958052483958
-0.401365862519825,-0.3230024140385967,-0.0987553856756096,-82.24459691648887,25.535824300775836,77.77862841554804,166.32793131592513
-0.24618653972293453,-0.2924150961705696,-0.2101802800083663,-39.51042107803033,18.757119172339543,19.914392154880023,61.99801299084982
-0.32176643603194166,-0.2978732172290345,-0.14129893849465902,-111.34905429786718,3.5491571094313983,65.36756780050158,160.07860711964625
-0.01400656722234386,-0.22150747860738812,-0.37766334889355696,9.047726450102044,39.23760581448981,-88.30584642952932,157.0356885580777
-0.4474888296162138,-0.366008730716488,-0.07746520035474752,26.735240763487468,46.93451312056473,65.42989938193311,120.44098684227234
-0.04406120215300076,-0.2521132536901302,-0.37137322222517255,23.395088644955727,17.265740479801252,-91.83690515717015,160.44797874861695
-0.13014219387538892,-0.29022490845629634,-0.32351794818780805,46.91030263976765,2.6789246690755704,-63.79037613864101,119.53961781723078
-0.07406030137847787,-0.27975028612231223,-0.35754463891650934,42.807816407722704,7.729390655619952,-82.88511772795405,148.89997485461691
-0.18174529299949568,-0.29617511449369327,-0.2751190528470161,19.872244808968603,23.81618554455025,-31.82150918322686,59.385697589381536
-0.375044087405686,-0.32345735692648636,-0.09921669801529681,-99.63857528382147,12.449350442556451,79.08387201068817,173.45329051057345
-0.47217446334825885,-0.3931580142943419,-0.07060808614355074,100.0601584835661,63.65628050648388,55.494034976305194,130.12864251031579
-0.4250913286800223,-0.35635391947425643,-0.07692424274862247,-18.51394938074685,32.66124408300756,72.3909885644942,133.17498820132053
-0.3490049120549923,-0.3193941792276893,-0.10766197715404074,-110.75372686487268,9.365219491047341,73.18659012184536,171.63962023118185
-0.4881493704241283,-0.41491987843489786,-0.06611158674218248,144.81130389563987,70.24776887656076,56.54476341464604,159.1361761830748
-0.2910626588504201,-0.3083236080244515,-0.14943951155220248,-98.15135118716312,14.75264924782659,48.65586105688596,135.65212605234268
-0.10409882275990368,-0.30131092207948473,-0.33608589488631685,56.54098832634344,5.773560523550032,-69.8389846675145,132.42441573230857
-0.15616571498297055,-0.30259946287972506,-0.29500793049960905,36.301150352899946,16.671161339804726,-49.25791660793618,90.93704332488015
-0.014562215321223404,-0.2508243399095399,-0.3745494387288015,7.00248856873354,65.55430295224254,-91.67756826449035,170.59216803044075
-0.2582583109971752,-0.3054618505493598,-0.18241439087985217,-61.57835601475122,20.3755818853981,26.89567877064941,87.36066455560336
-0.4017897088284609,-0.34604298163889463,-0.07995667837447018,-54.53069622819842,21.541166511912714,76.6110494139553,149.06385266123596
-0.04492399992609087,-0.2812359266561811,-0.3668709952571618,33.38667639684043,43.331291995852425,-85.3581637568009,152.9824550820556
-0.3239762918941605,-0.31747220219561534,-0.11831187962360679,-112.67482316383368,10.800945174121232,64.58058462024813,162.9147829659145
-0.4522524635633152,-0.3928269485377567,-0.05976851686917306,63.48850118069668,39.818699964850744,67.51267885804845,129.46881666679369
-0.07765007520637575,-0.3100670005070772,-0.34943396427285434,61.39725482762541,27.226876241005293,-68.38767198372196,129.88414556650713
-0.3744069225683402,-0.3419911439582124,-0.08119493063898597,-80.97462068236521,9.909256926436967,76.24190374205264,157.78455104029248
-0.1312699898695338,-0.3171326160588218,-0.30959834998049474,62.82673664514637,16.312064409389222,-56.607553996649905,113.14457130785455
-0.1989059019894096,-0.3176436180981576,-0.23694218434834075,3.2085955304304505,36.351583698922056,-18.354291008392735,47.177698004242465
-0.42565412125912294,-0.3800016887858709,-0.05725877508229682,14.513801976298105,20.45833458108723,72.40259591146372,126.72282102652332
-0.014511227448321985,-0.2799477654623195,-0.37417795118302705,14.731630769178167,94.3082387457906,-86.13417422013029,173.14455981782743
-0.17160178678815835,-0.32459718267181237,-0.2634567129785729,35.47284363034211,34.693856403601416,-38.697459586976926,75.65564552427703
-0.22028971197714556,-0.31890616822053697,-0.20845951579605204,-22.78176405600798,35.47565022478006,-3.0702238133426114,51.12736300965471
-0.14593147939238255,-0.3296820682936193,-0.28866839994430227,58.66162095857088,30.55003144452524,-49.64164503872184,99.87619634491861
-0.03889851322758423,-0.3079015931627767,-0.36800833873907696,46.498313092332936,74.57154401702381,-75.24099496420226,145.73667783246128
-0.3474819555692406,-0.3383743561720868,-0.08644739097698945,-96.44928458395229,11.23908503747569,68.69123564370804,157.06126449018817
-0.10836210119202896,-0.33216989300107386,-0.3230228431696149,81.24257233905477,22.142688436365574,-54.77071765538942,119.54588985759018
-0.29570424779553944,-0.3245047369745486,-0.12491840944669758,-102.5697983978832,16.5575903861275,50.23737012511273,141.648883235625
-0.05541675221704148,-0.32400440549795617,-0.36074356069642044,63.39167758618167,65.57106476727252,-66.32996178939038,131.758874532764
-0.48408735660439206,-0.435388772762534,-0.04664548912447197,150.9597645440999,62.399992540934825,62.646772856302285,170.40122020312262
-0.39957365790031296,-0.36837035985143696,-0.05822465713795666,-24.78007727674368,10.577846851352376,73.72470167497339,131.5068737649922
-0.2599762577703963,-0.323297579826781,-0.15682668060952798,-74.87693252502174,27.766296094727437,24.620825596931837,101.36632804612692
-0.08288104828237364,-0.3418647914531716,-0.34185221373988195,94.03026912447064,46.336726442333415,-46.89150957001692,115.01378126362683
-0.01292061497197545,-0.3087211200070184,-0.37713407907011043,30.017832714564292,123.11437016444185,-77.93968233821488,174.88960547287294
-0.3226726760561748,-0.33732661697512545,-0.0929080770092851,-100.88184425798484,14.870545617701389,59.64923734392296,150.24161288415277
-0.45477528024438674,-0.4182298148590455,-0.039107316305621975,91.95932902923678,27.037069532716544,68.58095564775111,144.26105844598314
-0.23607877218288031,-0.32764713285988323,-0.17694571814606586,-53.11509662088386,36.5855410176424,9.009499035615157,79.6647542222849
-0.0333990097509084,-0.3364150977394644,-0.3725675410463807,63.980705762839186,120.74133071376633,-58.558825805867784,145.71991057476276
-0.3728627086745608,-0.36062517078552975,-0.05986625212569774,-52.26879120744817,5.311635647735301,70.63503706868106,134.18568540371757
-0.05909971097888647,-0.35396086628271595,-0.35945364891830134,97.11277713809096,87.24687392389816,-41.31817180589851,117.01152179911045
-0.27522668762707425,-0.3362831403588202,-0.12101295168366544,-85.14563657418597,28.945273534107454,31.455686987695316,116.27791174624167
-0.4263464710402261,-0.40200104326847524,-0.035893887115548306,39.05043026120234,9.027584862442524,70.28534834240283,126.78325162959993
-0.13477799448970637,-0.35806076235943773,-0.28600557633620705,97.01998519840522,32.07764351335889,-46.64201418394411,117.71199048443975
-0.1104150745845476,-0.3634784325043239,-0.31314239814372324,117.61370035036778,33.89232304014543,-36.06141557533773,122.05223318249354
-0.011516025296943106,-0.3387813814184738,-0.38344896574966564,51.479167411244354,159.43351284633974,-61.34794067880589,176.50029652578564
-0.15907712376664643,-0.35425969333044116,-0.2558893381727486,63.022001300003126,42.30384511812122,-49.26262858172742,101.86135038349875
-0.3459484847923929,-0.35577559981794293,-0.06301049451017504,-69.65089777136595,7.668048051462691,62.33771973301254,130.77502382622617
-0.48764692336826326,-0.4587733894797612,-0.02860968965350824,154.17573732180122,44.01127803363505,65.36144302785108,178.15171634203685
-0.25671822183543275,-0.33765369653375155,-0.13761199420040066,-79.83367870759777,36.49410424749359,24.85904249620645,111.68084202545867
-0.03549494412387689,-0.36443868726136364,-0.37690116839143817,88.96136872601089,145.8721412021672,-40.45538386157465,145.34694910569542
-0.2994298588930189,-0.34074092313076354,-0.09688123295598039,-96.7689490789353,22.813557595092206,46.02215369281603,135.81770061663735
-0.08610170515488606,-0.37255391912793345,-0.33736272530117695,128.14384491322105,61.47597869652309,-21.324627498449182,116.98970843499917
-0.18150419523076983,-0.34959233241716803,-0.22669330389199233,26.400950528716812,49.89819288998252,-39.57078014083138,81.03715224146825
-0.3987769606858804,-0.38809671511221744,-0.03567145156969953,3.2218081059055663,-1.293407587989833,67.96129986849525,117.78130115242304
-0.061944231327107,-0.38512118238584625,-0.36168063413751717,125.70467476709301,119.16150328366686,-12.294851024751289,124.4004067246375
-0.20062376814021976,-0.3487230972975165,-0.19706203602415834,-5.571356125617299,53.27211088993535,-25.26457715289169,71.27869446912224
-0.0119799525106229,-0.3680206518345826,-0.3923772851947078,73.45382399446764,193.95489159569217,-45.631318291341714,187.1199812692063
-0.3712454546256529,-0.37773877016715085,-0.03658962605430072,-22.602666551348516,-3.68679737136884,63.04517457749367,111.19902729332439
-0.31995254056258543,-0.354103891761375,-0.06671454172906593,-76.71569918859436,14.694990972493393,50.70751437180216,122.23883920424409
-0.03804060797626168,-0.39505497606190104,-0.38483534963446275,112.58940019314966,180.58022691488208,-17.381655156558985,160.8121194479405
-0.2574702714324619,-0.3492003340601068,-0.11303740399340767,-78.97445335243383,43.51658330771273,18.108723694070044,112.03184058592285
-0.27891088746788273,-0.34738253047748924,-0.09716107590967799,-92.48912864134519,30.41860737182956,34.189265368883,125.69661364162617
-0.11009661417463852,-0.39659061651726446,-0.30756223676074107,164.24302743361682,48.33262842121677,-3.205044922603385,146.30220351657806
-0.09038578371129742,-0.4030657716774203,-0.3338343129201957,157.75782877909893,84.09079137949891,14.092918897889405,138.88356330670467
-0.44971578881587665,-0.43899678376873014,-0.014127800930709977,96.3470468679979,7.524691680000956,66.74867620727949,148.2583890691373
-0.013180701761793912,-0.3966614351380104,-0.40437094378482397,88.17361643277565,224.47610661878937,-32.91860991301562,204.01505726306632
-0.4702750585516033,-0.4592611332635984,-0.011727442379844133,124.96124817419484,23.57030217685751,64.47083939670574,160.2964931233541
-0.07006333390313951,-0.4105268172462396,-0.35934150759778966,146.04643340059442,145.74354680841196,17.085783948590034,148.8663460363778
-0.12965953476765296,-0.3901156393255606,-0.27879066449417655,150.36663612903874,34.54172704611051,-36.040777163450485,150.02048434035984
-0.49058146861006,-0.4813368268793196,-0.009271319758664853,158.9711974488419,29.106630176565133,63.330675574895025,183.0962727419722
-0.42338256558936394,-0.42086916147165426,-0.012479407592717595,56.90123108476796,-4.887402616134722,64.84807510395991,127.10450252853289
-0.21718466981796447,-0.35175960534029505,-0.1649806738488731,-36.71683044469658,54.05883795841157,-13.791222704128163,82.6192850229249
-0.34353484095299164,-0.37082459704518095,-0.03831399540963337,-37.82662808982354,0.5221703445188268,53.30706643679484,99.87896872829008
-0.041020529092948975,-0.426345815144492,-0.39739889899571473,121.09366727441379,219.39019077168035,-2.830956028132846,190.40223799190065
-0.010454148161873452,-0.4206573486523328,-0.420816153478951,89.90282405056637,243.9778347524655,-30.31533553942623,220.06922542550876
-0.05960659322475844,-0.4311442079050203,-0.3802750616171221,136.0633162091466,197.35748088131368,14.481160235851284,176.7461455183188
-0.14867799422784095,-0.38499355143971575,-0.24804203218769744,107.51066997283115,46.173987965636826,-61.66521675612863,141.89496754253025
-0.29473754624890885,-0.35597736927502033,-0.06927383153515981,-75.03912344103273,25.682147701772838,36.734064487009796,110.75099588809923
-0.023974514053133868,-0.43600775678789827,-0.41995316943426053,101.59847830361358,243.91030601204116,-19.901440547916227,214.99249811738088
-0.3967039917006208,-0.40517243523149515,-0.01212000660251722,24.595877044144352,-13.549109479851424,59.93546746378716,109.08055989221825
-0.24082558485124447,-0.3537167917411206,-0.12238812016004713,-65.22287866222797,49.29211986377532,5.430165810202219,99.93583459755759
-0.007792620105287448,-0.44463372547355046,-0.44092968069834154,80.28938360590709,259.9481402855988,-29.81612980872069,236.25272399495572
-0.07789428316491452,-0.43613072830684924,-0.3598997440575476,150.16203592692915,183.4870819761121,45.129337357734855,186.47606752891707
-0.009319507713091852,-0.4666520010546302,-0.45854887986436504,74.89054691371092,253.26022372911132,-34.40661572151975,233.09651196450218
-0.02766585200292787,-0.46252589903869334,-0.4367924014674893,99.10163631799588,256.54453420643745,-19.770378218360698,226.6822727707161
-0.010323615367681312,-0.48904767389244846,-0.4788014664636719,63.417855935193955,235.47126370278227,-39.376820459045135,221.7815586815386
-0.09552101673933631,-0.43605763170455547,-0.33314997026160265,172.84029707995876,140.14610030854874,63.50869612450857,193.36976900425887
-0.04478980208428929,-0.45888031069173635,-0.41555410064605885,114.45038498116006,255.75247728787218,-3.1798532465929377,221.96302659620264
-0.03047552598050708,-0.48796265045761456,-0.45699723704392065,86.29278958309479,260.136715156973,-30.489195891774138,235.4960859148092
-0.04943984521212877,-0.4869856270679344,-0.43491143086227124,102.79213280708117,274.29193416199126,-13.671766888161903,241.18040222745483
-0.16633792505321612,-0.38036861901320246,-0.2171013501264662,58.91360022192498,65.18487216344417,-63.38060435528715,126.21769834790703
-0.06203340195360916,-0.4596489921313541,-0.3954653954175754,125.60118480693005,249.1119733082617,15.566426425275122,217.4180644939403
-0.2573995798883651,-0.358420697653684,-0.08892844732937821,-73.26199173906846,46.082042276373144,14.474860886519721,107.21707442175489
-0.1113912935018735,-0.43125616470699685,-0.304146058877275,202.86565480131495,79.23640041520635,55.84932831967723,201.78200914767518
-0.0673049081053589,-0.48699938743151555,-0.4122622854986689,110.64074160169108,282.43431292085586,2.04072776031769,246.5243734223773
-0.07951309607967195,-0.46120499569121626,-0.3722606547743015,132.42324995278352,232.9506241693702,41.532391718557705,214.7758142424567
-0.3157741551901745,-0.3673155450895984,-0.04034429663215122,-44.84167158989551,11.116252505392424,39.89463194857024,86.06719990700574
-0.36923787576146017,-0.3925684618972608,-0.012308101419631456,5.9747795346901995,-15.425464058183863,52.90079212164823,93.60175265538531
-0.18222010073289288,-0.37707121229106455,-0.18626112345285195,16.267964932955152,76.19147880726864,-53.81044266521479,116.26262959330822
-0.27026867452986963,-0.3603061497667751,-0.07227693543539643,-66.26071898781616,36.488772339111534,17.685528269884195,95.27864088201899
-0.08363054022481184,-0.48735178662454487,-0.38799410114828736,109.98196920744502,290.87265814386103,25.929473560479025,258.3199602673548
-0.09546856230991144,-0.4631977196401792,-0.34604693184811053,131.8030360681319,229.34186268297353,74.54278997192236,237.5113873205473
-0.1265022887242172,-0.4217734815516242,-0.27177851849269963,213.2901699345478,29.888816570100104,-18.634721332040613,202.61491973361345
-0.22412056878610567,-0.3605591871137904,-0.13230947534797666,-52.394354980255216,60.89775067983533,-7.515181331386745,99.06481055152541
-0.09720256915992904,-0.48842723985690173,-0.36359617016771195,103.81010426227301,301.5133415146197,41.526995142312536,274.8821118512546
-0.34093777461810554,-0.3832235132082218,-0.012819958383881946,-6.082110225057313,-8.108031628860473,42.51738603713555,74.00407181974377
-0.28768721405916714,-0.36709691464002436,-0.04235582243286634,-43.458939164664045,24.269821539349635,21.92628606501159,70.53176866136182
-0.10765349893683004,-0.4831422440363153,-0.3351911924953015,110.1967047280234,274.36754810263227,78.89601773203671,275.4273231570707
-0.19531926433689667,-0.3764054457506224,-0.1544309997704998,-14.578186701433651,82.27687059625148,-41.22819057438515,115.24211746357962
-0.14019481573535633,-0.41644718163517275,-0.23964876565114274,158.4549365575857,55.22245867576022,-80.88723044398246,197.5739047099511
-0.23676596578296788,-0.3677708021433179,-0.08644297076769503,-57.26817537614188,65.44516316022616,-7.269271970041312,107.0941890033465
-0.11629199439848543,-0.4590451442490274,-0.29341664039078247,221.8395150407166,118.48044075339551,105.12566958503314,264.8036271903772
-0.31195549653566373,-0.37713967286831585,-0.013481911048577544,-9.671706963692365,3.3131451952691577,26.840491201804255,47.93535772262135
-0.11493728307303593,-0.4827246212983719,-0.31049866542979243,98.47002313433589,278.15660372025866,92.84634050039341,292.4699698753848
-0.15248976032039763,-0.4111977476537713,-0.20791173261934248,86.87527855812277,95.07722356349223,-96.0761361097758,189.78673286833015
-0.2587087533366864,-0.3696827269900619,-0.04674323841206912,-41.73330986408273,45.45704999615164,0.9651737886878813,75.55051542436875
-0.12541303131409923,-0.45227007841366507,-0.26247250956933565,277.23544938842974,26.449375281307212,-1.0389334578395175,265.00867449275887
-0.21608871281465383,-0.3759664111027551,-0.09587055470900402,-51.770370226271204,78.47588204845769,-24.084561149363935,121.00230998374712
-0.20311591824784692,-0.37892498118420354,-0.12059389726955638,-41.23975296625266,88.11171818592368,-31.932156106504745,127.1105242638992
-0.1644884467617691,-0.4047216185300268,-0.17700725217589158,32.581756818935716,115.76255874793797,-82.075007736672,175.7831449039961
-0.2823452600986416,-0.37419256800374756,-0.014309160367937945,-9.713043675085224,21.537351453280408,7.319546628934319,30.465082453967476
-0.12178137347291494,-0.48650775870860163,-0.28148430061754803,143.8285188191822,240.25833036900565,144.6174365908135,326.4924459229833
-0.1329027651727638,-0.44870115923110937,-0.23072765439448928,185.23567719713748,95.72817449848341,-124.19572330890591,268.3609497190096
-0.1761223231530944,-0.3985485597747559,-0.14534222353137088,-5.657013081313089,118.65831310529398,-62.686875165576254,163.00914590756233
-0.23044442208830768,-0.3754581962303727,-0.052565417833596306,-40.16567990989073,68.40149032002894,-17.878039895661455,99.9915547319431
-0.12500299572358736,-0.4840092164871981,-0.2531210541003415,346.0771343401085,24.69613142286549,-4.4126023321314065,334.50101435754954
-0.25237088623497483,-0.37429210943422847,-0.015706891169095905,-9.009984048741105,44.08402437189363,-14.113249361638886,54.94841941681997
-0.13919253719045596,-0.44331466525865737,-0.19958328946830312,77.29591950432606,174.03346889418572,-123.54887093910523,261.9221277319696
-0.1843375655563015,-0.39532102604320946,-0.10936229755616328,-36.98784467313222,119.2632283308437,-49.29684458258835,165.20788330941073
-0.204802960739474,-0.3844269534050968,-0.06392174900462749,-40.91507447227992,95.55508709821608,-33.40756354022511,134.3973861328081
-0.1470351032596704,-0.4331102298777796,-0.1684127742710924,21.134999689357493,189.18502704211096,-95.46389353397025,244.0887176561484
-0.1263002677285678,-0.48259226755259804,-0.2227473548482281,61.53675953962983,296.8235488153231,-119.86463725740496,341.6548351060766
-0.22252518392515155,-0.37757974346365614,-0.017850662128721106,-9.432749090309969,69.38043280459576,-34.5627748722697,95.60766520834103
-0.15836899734380228,-0.419058481319732,-0.1394270084405293,-9.680162771193169,168.91282359041332,-76.86780948159824,219.05782696484002
-0.16428155936687017,-0.4122077243111057,-0.11024801059139161,-32.8538890582719,152.627305823835,-59.04064034964628,199.61529180096335
-0.1818739441875612,-0.3963344882742064,-0.07365475488243117,-45.88045701056819,125.66282512278423,-45.13873304650607,172.55186310886856
-0.12564884063903647,-0.47985734623777676,-0.1920898398057322,8.61890526380332,323.8982637229798,-54.700556331980025,333.4204176556274
-0.18670742153011427,-0.38953894262775995,-0.035502195781109136,-28.51449651377163,108.96937509497546,-43.62281533763825,146.64057467229853
-0.15585697071100288,-0.4169956778285749,-0.08951688745478359,-44.29036887428785,171.4335662166563,-46.63697215097329,213.23456989940325
-0.14642174553442855,-0.43102265001984486,-0.12217556117186135,-25.607513529719736,205.5612254036834,-65.10130360649546,246.75820795496267
-0.13392969037836375,-0.45332273063297823,-0.15581082919902234,-0.2453141296981478,266.17226912615115,-70.88977513396839,293.23900406489366
-0.19486410155987727,-0.38262022665854806,-0.01461538861290751,-10.676727355218373,88.07729845972591,-48.746628605026636,126.25641256541861
-0.16191512111738182,-0.40858956666400326,-0.07159082375687043,-44.67028482493141,150.27790328358765,-51.04234617321859,197.75692810322278
-0.12432929214566252,-0.4758749735205539,-0.16920412100398452,-12.768859895676275,318.53555594504246,-9.43565297239323,325.5186242151938
-0.16220697105957713,-0.4009491578845628,-0.040378062233931866,-38.07373849154831,135.4788759507795,-46.38833757139538,177.25111078241963
-0.13229346907755296,-0.44864507799903686,-0.1273899327855656,-30.101231567853702,252.95129478749013,-47.97622484764918,281.7973414144507
-0.13826625722791736,-0.43386411336736386,-0.0964131425548409,-42.35605060765149,216.1118017151851,-42.553455892472286,251.1660369142259
-0.1218614976000482,-0.47132184401512445,-0.14625843966611718,-15.876232169830171,306.5797165158752,-22.469552041973053,317.2146755617279
-0.14326908418942544,-0.4221084800935885,-0.07071225934185937,-44.57268260963283,184.7387464269271,-42.12515365679289,222.87443928908857
-0.16591715961634673,-0.3906429125248179,-0.011289879195635177,-15.986434987622307,112.51145327270619,-51.414651315354696,150.4774048284172
-0.14719516544800929,-0.41124754303299693,-0.04700393196886066,-47.701786294242716,160.41300194501457,-30.632144431393357,196.14984874750505
-0.11378597302121315,-0.4907383310223098,-0.15368563078514458,-6.138492792239239,339.60650573068517,24.964091163838027,345.4338568509186
-0.11671110173123472,-0.4696222297967207,-0.12454226230505921,-20.85919438175393,304.1026964832239,-5.859717485480617,315.21405762372274
-0.12234302329081638,-0.4511821775375964,-0.09929480696906401,-36.693910628913365,256.13754117389897,-20.91532177013132,278.68247733691925
-0.12658887796225607,-0.4364683282990245,-0.07331340173933198,-44.30376487380725,217.1858843284708,-24.990916572973376,246.2281909534404
-0.13499558509195927,-0.4225314626409671,-0.054600601300613116,-49.5362649678953,187.7446001008194,-29.68187472743756,222.81176749192974
-0.14014924031541323,-0.40177529221192354,-0.013320681232882214,-23.928786047070204,134.76401344773973,-37.54394972283609,161.82493580791876
-0.10490646752869752,-0.4903487633791053,-0.12816211891389823,-1.638453612003901,332.83013474328754,37.35539973686089,339.86789717245955
-0.10666061577646244,-0.4701454507671173,-0.10011800676546312,-25.113367391849593,292.5683510249697,12.202554973962176,306.6284474301484
-0.12341909820141748,-0.4235463002865794,-0.03786932080291866,-40.98213424926616,180.1293849603441,-29.314663317958832,209.96729685080751
-0.109698522785338,-0.4524591743916574,-0.07410663456253314,-36.44877088746504,248.01367346213135,-1.2473960915865092,268.111463155523
-0.11636205181985752,-0.43518649859841096,-0.05216115947389327,-40.423052189156515,200.18079891300573,-9.373099588373105,223.74507652939462
-0.11295338582806395,-0.41460122859488246,-0.010652795679473914,-28.060848370201125,154.14282773960682,-17.2608376569874,172.53002817259167
-0.09287797813206607,-0.4901826664270206,-0.10276357716787698,5.039573034849692,317.4881367654083,47.81704806935966,325.7046513152966
-0.10692948241082532,-0.42780040642148576,-0.02500982614729569,-32.410371397405065,176.8365544506115,-6.6815514045762825,195.4146027245138
-0.09318205494582749,-0.47061848117221744,-0.07563960418735166,-16.28004435318179,276.47769812189745,27.078558594972915,288.8005740952723
-0.09706563581677166,-0.45013573893079595,-0.04966060022349278,-30.970733972753962,227.65131071223084,11.453733222706777,245.4147465590359
-0.07771866496225487,-0.4902020291054832,-0.07795978602940445,11.503150410690733,302.7210603001611,54.32835950185936,311.6806520591197
-0.08577443371863468,-0.4308439879427083,-0.008173757919616498,-14.957713730318615,165.41713375245766,11.42143192321894,174.5055036186707
-0.0779628136407932,-0.46992053398769024,-0.05233827880724223,-6.707391178702883,256.89001986084395,35.849126015413596,267.6116827828101
-0.08229735584633496,-0.4488161839944203,-0.02899503396675257,-21.1589275827952,208.6219262065502,21.865348258437976,223.20238552211134
-0.0602990022612851,-0.4899995781560912,-0.05435014628482543,29.174353003062375,281.9206971451681,59.523631323178726,287.63650059106794
-0.06406566303340974,-0.44877337398699807,-0.009546188217151419,0.06752266256006045,186.4669570708778,32.904770965083394,194.95002372391605
-0.06099285910725803,-0.4692301564308149,-0.03084698124524754,7.7159349771007175,235.126546259713,44.88725494839689,244.07868451929335
-0.04121199218328047,-0.4897886461293314,-0.03205954509710168,43.942718947157985,261.6031592568092,59.17894671426778,263.3971613008239
-0.042103910653457,-0.468748966006653,-0.010146268118592094,25.543543707525476,213.5460645804833,53.039119118580246,221.8988858903834
-0.020942108575276296,-0.4895511554558973,-0.01053844674455695,52.30741399145843,242.59800823037875,63.07114827866536,246.6456850248535
0.017599417161467457,0.008748472371977178,-0.491129970611168,140.63038528478455,13.031323040969312,58.632427313797926,168.60428601802042
0.03782846813845614,0.02706961098404087,-0.48960185024494673,106.80486819456462,7.54234396088691,59.079066437950814,145.36029734216103
0.03731968452849993,0.009879419501288067,-0.4719293613372463,104.82177790209902,-5.7870908197874655,46.36295719643505,134.44805722404428
0.060357605566798145,0.042018055005967836,-0.482868135958252,82.14874282357272,-11.299169880328463,54.78230325451729,129.64413614856116
0.05858019265857928,0.015603542108289292,-0.4546794066059819,79.25656352106049,-22.043498882988075,33.00191555543158,108.5448753493304
0.08105317030593018,0.05956323041922079,-0.4836479663314624,62.064513271762515,-21.8436539802762,49.52450804520372,114.20549667416103
0.07532974545761151,0.014775007581749822,-0.43220623702243705,69.21669923597203,-30.22707386153826,16.50149548543203,92.81025690826799
0.09722602400112967,0.055738034699648165,-0.4601052676756099,61.71541334441227,-34.83542777799957,36.72668659709116,105.91850934704196
0.09316242820185022,0.035248162774659586,-0.432497847946438,67.05888211637703,-33.59923321109578,14.220990257640391,92.11752739787902
0.10524793182458303,0.07883199889126158,-0.48665793214961256,42.28704903474325,-27.958269519995625,46.486600652743604,101.16888941508206
0.09203167108112514,0.013132924240427946,-0.40386050274816293,64.63124976548542,-25.110269102884928,-16.657971661426426,85.22380063311904
0.11772808050993683,0.06500507615613194,-0.44644433292142005,62.25388082043179,-43.77583107106514,25.75611283572902,102.50471442182948
0.1303146181756184,0.09253995161748962,-0.48599462941299937,32.000329356065045,-28.740156316352042,42.307472874495645,90.21906070743367
0.10537253630637633,0.01426391658549614,-0.378408608652261,71.67919126325843,-14.808382058849645,-36.972625001798605,102.56496715654035
0.11484678105048257,0.048370567353530736,-0.4177361349178379,72.880971629978,-46.79853101132343,5.095494350837587,104.83488507909293
0.13437049540217433,0.08370132651582418,-0.46182301772695206,49.83502534594321,-36.202813591114975,31.86030421037369,92.97084784589285
0.13807126053474106,0.07632506643480569,-0.4368834911429726,68.2324927543683,-45.76323998749149,19.0205682557184,104.67966943395417
0.11962328256448063,0.03948224107590592,-0.38642187181797355,86.86023976631195,-42.801604242917676,-16.135443657130764,117.79428598615681
0.15917911254116235,0.10625686668141354,-0.48786392195795725,22.419315756823906,-20.908310832808823,31.90907945934122,66.80644623998302
0.11471078418222191,0.012220386942676076,-0.34866471540706734,90.67120050417644,-2.2072230335728307,-62.27976813346355,141.64243203537902
0.15885056266856,0.09795623190362862,-0.4636347740409894,45.224239715772065,-30.438557171681595,24.991703449066307,78.87999715108974
0.13706754887752481,0.06717969280496072,-0.41144283373143975,82.89696696549183,-51.7813705376586,7.897597358391749,118.46034003762672
0.12563500673176398,0.0363342832448279,-0.356415285597021,111.1357296557721,-38.204202705419505,-30.260531297250015,144.23474864690897
0.1882825470201253,0.11551418358320753,-0.4881109324574772,19.080072098791995,-5.673123190639515,17.95770275302913,38.36553586270435
0.15893693417790022,0.09086754493217608,-0.43759317473912707,67.07681552524737,-40.60195887177228,17.510745739997468,98.95022485851774
0.12520621742595855,0.02535257318130002,-0.32873213995178185,130.922307833132,-26.16337163388087,-43.945705690334464,164.45125978378522
0.1393562369863115,0.062067898301308655,-0.38260018408379814,100.04508071575374,-54.448431286779936,2.491753878214247,135.7923932336187
0.1846324466848131,0.10927970738761805,-0.46447310788872215,41.397751121464225,-18.209339438191307,15.084625483761542,59.00692604088535
0.1243096270182224,0.016472084843314028,-0.3038739128136757,138.43645297696537,-8.710347130005147,-55.8841907969043,172.67159454849295
0.15837560181615545,0.08510773023066098,-0.4111330627051652,83.8255809890042,-49.00967499363628,13.62673170558054,118.71817132384331
0.14071592784984932,0.058483383741936346,-0.3513423738303257,123.53299836221787,-51.917820652065274,5.499156864329869,156.39740412761574
0.18134022783540954,0.10402792700389207,-0.43927717096212643,62.191827532212734,-30.42042720602113,12.23396018589927,84.46382131384377
0.21914338918847975,0.12185331111000042,-0.48671836713876215,20.646472260975862,13.136981000679313,-2.6502309365648458,18.673402069878396
0.15927999576527602,0.08267363455469418,-0.38365855826960293,98.9297591452603,-53.827145829042635,16.20125832872727,137.10217999465468
0.13822432920401762,0.05272519342067872,-0.31958073471246745,145.58905149673387,-41.13097767992028,21.312142386558477,173.89298866685937
0.21110886433573878,0.11793644331847786,-0.46396307016408495,39.00095927281974,0.2031720077727428,-1.6718067062715036,39.00739689922628
0.1256195545376413,0.015174307527573538,-0.27415054105513104,161.61317583015594,-15.683864454652223,-14.739692694842113,171.90490677162765
0.18033605120150875,0.10123338607190074,-0.41431475174308696,76.49620177708138,-40.411522731934525,15.099175623441816,106.11335149912759
0.20367420356108518,0.11469142889072942,-0.4408467753742105,55.769173712595425,-19.26117494168895,3.5733163210039223,67.7766860840923
0.1548753304651952,0.07899974176651714,-0.340801135557638,117.55146129614714,-43.68187530707289,38.09178365695565,158.79002646328163
0.16544826716614153,0.08935540654726809,-0.36014505369363115,104.04772341576825,-46.057097957417035,35.63360801367898,146.7943570784898
0.13463743308112086,0.04822308200222114,-0.29070454950423463,139.4069534286573,-17.38210503651929,56.33253575712008,177.98788245709346
0.24939069163505712,0.12514469921461713,-0.4860646186679594,21.435618118410286,35.42640851092383,-24.490016266202307,52.48249108141469
0.1808969441554394,0.10161439801381006,-0.3902080406987472,86.80090876004772,-45.15404290954085,22.50317062471707,122.52295856646829
0.12458865133812475,0.013918247390512506,-0.2448794565653496,5.732608399543352,129.35812349383818,45.59370313990599,149.20182554395666
0.2270909697419668,0.12296371375235526,-0.44972139408657646,47.63843224749965,0.9781429580544483,-12.586565491223928,51.952330902520316
0.20376120571901946,0.11504471830813434,-0.4185847372937758,66.09675674943887,-28.1082182225242,7.812655075262345,84.85180012780476
0.15141766302213444,0.0794529325640132,-0.3107514188997077,111.59063682208053,-18.15700291535468,69.9664590845866,171.7387978583636
0.12990185213258798,0.04565379314484613,-0.260808462069568,61.37240593701219,62.900086805215324,90.64226950649703,168.85119642331048
0.12173734341841391,0.011324205015892375,-0.2175835586292046,37.79133917353946,76.02902765483178,-54.865616571386695,115.61170890876832
0.2798122064695223,0.12545807194661784,-0.48695632967488434,16.54968137598975,61.442759398678646,-43.530027335805855,93.36399940463657
0.25091349555378367,0.12794609240136512,-0.4585864085452815,40.64148752994805,26.592536560960056,-27.03715323633882,58.916519175327856
0.17044582013502635,0.09951933764770082,-0.3357270292128385,95.28414199873652,-27.208054170186898,58.31851630499219,150.38281170822526
0.1839229708518727,0.10696105678756207,-0.36673905362549397,86.61744272364007,-38.08070227942791,37.49246827060407,128.3286010587998
0.22838715445927016,0.12598305089360234,-0.42466577280450013,56.16090872329623,-5.477814627603923,-8.332182328322496,60.82737012301315
0.2034226065149241,0.11720587595930992,-0.3955648357243454,71.05905620633182,-31.232269285224938,18.751433155571302,96.43147011423758
0.12335039168134487,0.042353019052879415,-0.2313575733338325,-18.39488417907569,128.40079551031832,15.13366087304042,140.9756606220317
0.14440701760065805,0.07824109662233242,-0.280714771089316,70.18638472627504,37.49695375921368,94.49893718645103,174.61535415782953
0.11543557339521954,0.013754466996994064,-0.18906589114035266,52.87385668565209,17.899373362548516,-35.35863769805442,76.94363628812486
0.30979322026178324,0.1226287819933567,-0.4876214418486098,9.109687645756303,80.75415548913588,-54.09113739778482,121.02118963273341
0.1159796840469497,0.03452429468428353,-0.20379228140282246,9.511303308603274,72.26108239359863,-47.740275223197386,107.061820843983
0.27963000950493266,0.13112595264524296,-0.4609631004487416,34.29972528696901,48.70760561571515,-45.921726386621174,90.57957479782971
0.1681413992058931,0.10564380769520976,-0.3099857290468132,73.63626187098671,3.819178872221464,79.69076163621058,155.5876203446197
0.2527903017882575,0.13364723662982958,-0.43047801407076164,48.47816457632405,17.082913366759044,-24.09374046452995,59.62663056776651
0.20311532548445754,0.12143619565517622,-0.3734219355939149,70.6461849549372,-27.14518779936735,31.702500798839782,103.2501539851735
0.22698416656113007,0.13050398086362097,-0.3993486212051918,55.52045951397848,-11.19493896973821,5.340869371611406,62.56972827129863
0.1881375332475687,0.11721322629869474,-0.34252358293199014,71.78844343983971,-18.397122136770015,55.995134993141704,127.35423395043497
0.10678136833215673,0.015985369372989222,-0.16295843069775234,41.600280106811866,-12.937222405692324,-17.129974820588856,57.58867264039433
0.133302824169444,0.07561914231013289,-0.24822570319387727,-4.075945977625139,114.62803050603527,66.25694184641522,163.68678444421522
0.33931373113549435,0.11659918055000862,-0.4881655423608164,-0.17752297747582446,99.73828906096686,-53.49876118325136,136.20505130752915
0.12091898700176512,0.07070964460273826,-0.21755800704172917,-32.46653484298686,122.27762160974851,-8.634527238003589,142.1249044876712
0.10829835944993627,0.057960214443640024,-0.18876202962514133,6.660858671257245,48.22883882056368,-55.65442556482188,106.49595160289734
0.09468961234499673,0.01446761794454654,-0.1342290660446212,32.462284205944314,-40.625246080369635,5.454831874128558,64.1269395143765
0.30882266070823816,0.13129242398628943,-0.46289721716438803,27.996600025068403,68.78190912520645,-56.804666346527036,115.1929311778878
0.0978717933506712,0.045660835438917524,-0.16342188193359752,35.975885528687584,-10.764136526189859,-44.88925396193784,88.55797921128911
0.2789113456997655,0.13899870603747966,-0.43466827151022125,43.26260253496012,37.34875184355653,-41.23944077048084,82.17574010236143
0.25037475465510517,0.1408155644845197,-0.40290109001526514,46.86401234619501,7.969963043825537,-11.078721601255353,47.48121454400752
0.22334946317100907,0.13623811488384419,-0.37348216173202586,49.42911339866832,-8.414430975001025,24.16579485121732,68.42451815857696
0.08081498739644039,0.013749209178547661,-0.10854595466693989,24.254518066634798,-55.19677623183159,16.978392708095043,76.41030307633548
0.3680360148951183,0.10730926641462774,-0.48850641150073165,-6.1245488555203025,116.07444627045706,-38.06347047256422,136.26508777374
0.20881546251020022,0.13243155641000304,-0.3528652112136635,53.14061795490946,-10.386813635752368,40.5798316843499,91.7820303104609
0.08339920905376608,0.04386733639660856,-0.13767730431973874,38.493929860680595,-50.02750748798897,-24.665414425783005,87.95133604621356
0.18942878455511702,0.1283328724882899,-0.31934013708960596,47.62729664985099,12.404612243192268,69.42806803273051,127.64092422188246
0.06556617997538694,0.011442164956866396,-0.08398957242599558,19.15151960108768,-61.68970899661991,22.999741647656176,83.31156532996752
0.06769291781136749,0.043277530737174774,-0.11405357010965439,34.48503407745692,-70.21628250945632,-13.52510642535134,95.34012959584925
0.04948538548891607,0.008367222645536243,-0.06076314257471105,13.779795726480597,-58.78717488171563,24.69377368037452,79.27948875829458
0.052517107416669095,0.03417880752717056,-0.08821912144935434,29.040452452500862,-75.17042606770178,2.5117459464284444,93.25154487190713
0.037367417362357214,0.024483360550110245,-0.06249267811182008,22.740590238213432,-66.9668998141165,12.382268197139307,83.57349245071802
0.030275821824506555,0.008912979679878696,-0.03983833981971319,13.88850055550985,-51.47009842607878,20.548623739722224,69.45244259954723
0.010760260745187211,0.010924119415440858,-0.02162719059995294,13.335535817892122,-35.65665953129451,12.598312554824627,48.99884674657208
0.0834732150988633,0.0711113144912231,-0.15100427249395793,25.81071540775565,-21.450604515972145,-61.160679699777205,113.58636862081248
0.15254817649199565,0.10458457214383993,-0.2706485483433921,21.027707601881616,74.9852934532245,87.60504817785409,165.86778859927304
0.008735504767099223,0.031247251120144426,-0.03906509415360193,24.585562092605436,-57.887451402243656,1.9030754348445837,73.41299280387052
0.024352341375279973,0.0389451837580288,-0.061276728240805656,26.07918307523628,-70.44804859561349,-0.7278067719733539,86.49779191119129
0.39509784558742933,0.09481542223062522,-0.4889415160439318,-8.33781394597137,126.01775240020005,-15.728104072980301,133.20219745931226
0.008533719445986465,0.0527081571389752,-0.05768677290928115,30.480064610872407,-73.18453525506766,-12.687556332892639,94.86096225199964
0.338414594859996,0.12811177245127026,-0.46463122530397544,20.704678136606976,83.56685955694246,-57.55800009840216,124.98259442386245
0.03607323827636072,0.05400765202289032,-0.08545243841997496,33.000308659776124,-82.86926988879017,-15.394149777429096,106.78008845469162
0.09788338214459569,0.08710747694448362,-0.17573206926249402,-6.825737887489524,44.03212032105718,-70.03855137172425,130.39235431714422
0.16815487099435494,0.11888039324748073,-0.2876238820748559,29.51013461019737,57.35859769735704,84.04869928645299,153.82050705498233
0.14028887567714315,0.10269064981051601,-0.2445653000504952,-15.781738542190595,115.78526768485202,63.1564408459885,165.67677075228536
0.012941176440751656,0.07235742998581424,-0.07690615594524758,31.72815989996251,-81.20813002247137,-31.89192998403018,115.01872300296579
0.05048312441495728,0.06734480832303863,-0.10959752983154286,36.8723117685385,-78.16219271814454,-34.367407705033685,117.87396922634238
0.30702069469532733,0.14173056362623826,-0.43830236807106127,37.4675413644254,56.63609653932929,-54.70908246163871,107.09201608282197
0.11632305683343791,0.09902176796899126,-0.20328887563413295,-37.319675727981874,114.53619373693755,-35.227039494357655,150.02861199177286
0.4201135039570491,0.07889482542603632,-0.4901996548591351,-4.273754130055387,137.78397031694075,9.376972647284113,140.90892488038142
0.02584333928618826,0.08565400858974598,-0.09678543116915106,29.525543557823376,-78.57409680255972,-52.19294610250272,132.4307373571552
0.06406415032015206,0.08678249562661422,-0.13301366167303114,26.5615477248936,-45.93485436937917,-64.87434874547255,129.0800947686891
0.2757621745367998,0.14856371773445676,-0.40817387243707604,39.00508371986545,28.572390166167843,-28.784909623290112,60.901745716821125
0.4446975782524733,0.05995871128012087,-0.4911233478537375,12.097701619934899,156.9672108536438,37.56873956244179,164.68256666559515
0.46763209214812335,0.040671203183080096,-0.49059797719587434,34.14693237998429,181.0114082022912,54.73789369953959,191.67386257504342
0.24413050214317422,0.1489834454659837,-0.37366452666085004,35.28389713303684,7.226472457831962,10.661358025667589,37.191273910637456
0.48940985266262355,0.020787442099515996,-0.48974592507120324,57.69195135100098,207.87104944152344,66.63782043857859,218.78767175816233
0.012521101343002217,0.10588054794430912,-0.09648972279216816,27.982972420376626,-78.61413324818479,-68.18625587774285,152.02362410577425
0.03965622211116254,0.10105743323219074,-0.11560597637361741,26.837207037267063,-61.6163073012763,-70.88377689580857,145.7530242703971
0.368061115137933,0.1213801750962395,-0.4657937347500473,14.421859651590097,92.51195857809893,-46.364570702931445,117.8188367047493
0.2132636119329137,0.14568247877692603,-0.3326877748615813,30.221913062195384,16.426272191401758,51.139189027897594,92.37100757506944
0.13259170288728328,0.11580587559596733,-0.2228454437670906,-45.064559121292405,138.18961684636457,7.857734342045177,165.9514110160975
0.18794973399018527,0.14137425495799766,-0.2953895801726673,16.57718716955732,58.079733108664,71.65981623853878,134.5014784898343
0.0131402462216329,0.12980772835983634,-0.107770635135784,22.829023942358937,-62.970064375055216,-88.0279673016497,170.79434279451513
0.3364999776708251,0.14117789746153042,-0.44160544316041644,33.5500628767452,70.71477251402692,-59.55315330761384,119.9726423532643
0.06754786607382374,0.1148883999545699,-0.14434337059271646,7.176809413249032,0.1083707926108417,-90.48773828881053,156.89114991907945
0.09033164967634194,0.11595075364564705,-0.16690683696223801,-13.067528085878038,54.15128973070948,-82.81732745158709,156.1629762392073
0.0412598255759683,0.12315511642861576,-0.12451663732987078,17.27074515544352,-36.09064635917517,-89.76694026362534,162.47595650277523
0.3034233399917432,0.15365734203828874,-0.4138228714644948,35.41274680733092,47.70479090109719,-45.407420150285496,89.58768578210943
0.3974119482133652,0.11088083587077013,-0.4662787274902406,12.40567308687957,97.84138911106253,-23.89148087392742,101.12100887199738
0.1511195015014461,0.13212251974583278,-0.2424613629577223,-30.7219259689615,133.26499364893652,44.641977258610495,169.63570065674585
0.16439537687195294,0.13276831732276673,-0.26414192687838267,-9.903156259715715,106.45995498198727,66.45090333093476,160.41587124954853
0.27053795530472224,0.15931361230118696,-0.3817315514822204,25.770320310561345,27.08712011109575,-10.674207380175378,32.273732862085296
0.11174046635241158,0.12765821125806576,-0.19031409559633183,-37.793867932783016,118.65066077319905,-55.904452060003734,171.3667016634938
0.4449823380752724,0.07562358175375367,-0.47426971949948227,18.22720045180099,123.36044777189917,32.01567674837416,127.97080125716344
0.2385541797768011,0.1595664694328771,-0.34564076984976944,18.647637905463398,23.73706267825888,30.108879683398442,56.46393806359503
0.4215749611096933,0.09467453531517983,-0.47080805805398035,11.588081346341575,105.7461292478809,3.043195680518295,100.59282207127674
0.012755652354638491,0.15564124871751972,-0.11612912601600384,20.27233943078133,-37.1129206754454,-98.78518678687037,178.37107875944915
0.46697250243303706,0.06005888414564503,-0.47187081083702037,35.79783891610561,137.0655880897415,51.411249537560394,151.9577526917011
0.3669518270342569,0.1368658790055885,-0.4441249124181542,30.578078454665807,77.77402003513156,-52.47425753068102,113.42962619273874
0.21052392137058074,0.15940148079907135,-0.3063521012863354,7.445453506367414,59.22414517154794,57.33175397643934,113.94197458325817
0.48915357827744815,0.042072153319318795,-0.4693732806713063,55.624151257211935,160.18039529853104,64.89195723494319,180.2076719951136
0.039909504262548745,0.14806556628248807,-0.1290995927272855,12.164288656010513,-5.753301744256653,-101.99527580555528,177.37013300599216
0.13234828250163289,0.1415942429965828,-0.21059367605866658,-46.83641835301147,154.3078207103764,-16.597360181627753,184.54862870650842
0.3327537861119214,0.15564780923145777,-0.4189451501278576,33.90010718217407,62.433041472027554,-55.39906640649228,110.17161527785991
0.1825945649959163,0.15624061525090122,-0.2687908054233392,-11.751700463843392,114.52119597440333,58.38918601037729,157.56559494989762
0.06497616158510489,0.14484524133286936,-0.14541550186151803,-1.9422584704236954,36.43812719406202,-99.69368628728589,176.68835558465344
0.01175887596723546,0.18199393639052358,-0.12164698719681993,29.85533375799399,-4.1917782887484805,-97.71824149848867,172.2806520290198
0.08785458795629186,0.1477366726547048,-0.16325538159753816,-18.099787865404693,87.28979023509397,-89.63470219081978,183.38532110461048
0.2983234414061614,0.16670269549459776,-0.38952007065929434,21.755592890136427,45.52677277656598,-29.966715798396287,65.18851965298238
0.265302363533386,0.17167730460956976,-0.3559715292809897,8.241365149589742,38.534104925719525,8.059013546670514,37.816224171458884
0.4374716342020842,0.0965842261981375,-0.4581197522811557,26.65206379501188,92.53971250497591,13.144454123607034,85.59139323790174
0.03738147936640257,0.17243353053170646,-0.13074924878451566,12.179551849271178,24.09009564267602,-104.6152061373279,182.3959749771231
0.3980520751036637,0.1285025408767836,-0.4452735316929982,30.178059513313833,77.75718841030316,-32.10685148189106,87.76607717262428
0.11069579098198634,0.15671444756504033,-0.18183183600427638,-33.53822716088756,142.79825312733078,-65.1003933964679,197.53363685711736
0.15408951714877978,0.1541975621931319,-0.2313715556766862,-35.79275284837698,155.2561330211652,21.605873559625145,179.84180190210387
0.23508314871916924,0.17393808377607933,-0.31889911667393384,-0.8810254638872799,61.1429585997978,40.85185552919789,93.80686753220044
0.4633633481419827,0.08237098114940983,-0.4539263407501577,43.356035573179305,94.02944468629771,39.56873236889719,106.49691114645123
0.025501161716734888,0.1965651143547094,-0.1282214309392976,30.09714090604198,34.24514007155804,-95.62538066224732,168.7617462091367
0.36334965170475564,0.15409881515859336,-0.4230192926928922,35.41614432838215,69.0568441077499,-54.73752205759296,112.0982283644333
0.2059671033212343,0.1753743106521553,-0.2798651726689263,-11.989451033475461,113.58926311941849,50.31551414532943,148.334397330228
0.06087725814051681,0.17273591562715485,-0.14303970232236635,1.5252556232755978,65.19012810447822,-101.10814739953918,186.60444798884626
0.32749611008288915,0.17112608362445358,-0.3965602609526264,22.506686924638842,60.47984767220864,-44.15127547530272,93.0116514865596
0.4881360517537656,0.0647232356253159,-0.44998244983910557,60.48002561239164,111.15978970929172,64.59442692472791,147.67770781944552
0.13471196485938602,0.16855138236436512,-0.20054832984769289,-34.830824049415256,180.72790053810053,-30.79146256185355,207.40058953973048
0.08501572828924192,0.17644000065539256,-0.15740550548106852,-9.903402013741399,120.69076554155393,-89.92086152001856,200.29196548654517
0.2929381447143047,0.18098662360774137,-0.36551653897073355,3.2662967049538985,54.41607132048315,-11.554064468117147,56.5201529975839
0.014551961970514171,0.21929345201808859,-0.12598770161054074,57.34255289444359,50.70026298598433,-79.58092215488892,148.15792938729774
0.17624728785938154,0.17279473670021256,-0.2444882140550797,-20.872294687723013,162.43817424026196,32.72388498153824,182.8245840202409
0.4286691098549536,0.11812432247732879,-0.44292594081066755,38.714462706257315,70.01425168366194,-5.012895763875221,61.364715411726124
0.26120157994147875,0.18657119475421113,-0.3307378318176835,-8.261504995801102,67.26728007531216,22.88703768956615,81.97754501406554
0.053141388774521126,0.19847889147112835,-0.13806194386280785,21.63093605910344,91.30840653337204,-94.2330434856998,182.94708428616164
0.3945095271872286,0.1488746337111203,-0.4253667577711665,41.05994885288859,66.41924223553048,-41.445937083983864,92.32313660298837
0.23134532515430817,0.19076146193329874,-0.292927800767783,-12.69016130720911,110.9432355150122,41.36889940458834,137.88214811574593
0.10999644171641926,0.18401553791016761,-0.17299837302399362,-16.697025086987622,170.63458733367412,-67.59293783443252,214.36058117567995
0.16014153898680034,0.17913424654600146,-0.22085196429009435,-28.560168582983934,192.3343117328318,4.452026067529258,208.23240063671724
0.35798238627469803,0.17236426011295902,-0.4023980973634803,26.162334513832732,67.77587340932376,-50.03179963620108,104.94953366270556
0.45911995791197596,0.10495586734461337,-0.43779746270136194,53.63999645883289,64.47252117041909,25.99903453721319,74.85652135587151
0.012326079171151416,0.24554611597413473,-0.12572526344818957,93.5550327544288,84.97904213380032,-50.91951469803412,125.70662518993467
0.04526879283476409,0.2213091988457936,-0.1330405209787356,48.88429802373279,107.19849835295346,-80.79673830891485,168.00359539395785
0.3216037254042109,0.1875308484543346,-0.3743389441216831,2.528612540426522,67.83828482898761,-28.03779577846298,82.43327003415088
0.19961462353394116,0.19359623739422654,-0.25319630230845697,-15.52810099693869,171.67445429481603,34.519402150136656,189.61483543564523
0.08000054296751608,0.20215235505548357,-0.14959023449908648,12.654742331816863,143.78655388025177,-83.98949555362528,200.44410662368213
0.2884190952044589,0.1970879510270313,-0.34187344274342085,-14.745010331304401,77.67815023505808,5.4835887153436715,86.52678612395243
0.42549409078002864,0.14003247503789612,-0.42535083299132465,47.94856003996769,57.2316494418928,-19.410197531084876,62.93344288120835
0.13682999816952135,0.19371695142533596,-0.19012301078681693,-18.012113979249534,212.9897544027746,-37.29270067352931,231.72765055954633
0.4869241325632758,0.08822353316830606,-0.43235294927627493,73.27080161835262,66.14413612847386,55.878200431263735,119.4334253373016
0.25809314206508027,0.20414315900874158,-0.3061014659017621,-18.329597193542277,112.34017260735598,30.529759995786808,133.46024637874353
0.03994865249546231,0.2427697967637169,-0.12885810440640783,76.15633266934019,124.46219880666376,-62.285562270865015,153.1356102366405
0.3898411303023977,0.1703033886376727,-0.40638021638609056,34.02555807936701,65.24897429461302,-45.42549063768213,96.87858423642146
0.10699287902572802,0.2087099010801719,-0.16232938291419358,7.38467910335703,198.80276836805518,-65.39307348878914,225.69391158809665
0.026537443781845416,0.26327728443347953,-0.12467602471291495,110.47820071667958,125.96491456155199,-36.887054674935676,135.04880535450351
0.07364512437401927,0.2254993154013753,-0.14125852108524178,41.01997371134585,164.39240646483825,-71.82445207288569,193.49518108148922
0.2280802865852683,0.20988576327886527,-0.26817477459817096,-12.684588847021203,170.36049773559938,35.97294066446052,187.68779457555434
0.3512335529850109,0.19125333719378973,-0.3820228234202323,6.32735668622356,75.21483048553617,-38.39877569793383,98.20790717822833
0.16646230282478064,0.2030348910561957,-0.2108458244188735,-10.712934681410353,226.4133791041432,-3.915821763944445,232.05460117921743
0.4566353690653797,0.12756279488461514,-0.42247710316325565,62.83030064662299,44.88199904761709,11.064950172098605,59.24010795909457
0.31647894279515854,0.20527627025161205,-0.3523720625065706,-18.24684803271554,87.22282290505794,-10.0223117989676,99.1647623633332
0.28548712251096775,0.2155744268804069,-0.31883175646622364,-25.152360680863072,116.09218199964674,18.38128115665458,134.32662764330385
0.06624435705096826,0.24783223615918676,-0.13296252104299938,71.17205019388743,177.22443021751428,-55.3942974391061,181.8409137625971
0.42249716783853336,0.16263412041144554,-0.40898072265552526,46.943115525663146,54.21264683007344,-28.925876690193242,71.46940363099938
0.015390473444647279,0.28412611793993603,-0.12100341157970146,145.0408448637532,148.34260223798003,-8.004730325481098,147.37321697782673
0.19614192343291542,0.2149309011913173,-0.22980798696120414,-1.0850325024054115,225.76533379845588,16.440119434749604,228.09418788481594
0.13524000846383794,0.2169271163592733,-0.17667470501535343,8.779893447996201,239.37212550429587,-39.523938277216374,244.8690758995061
0.4861324574657538,0.11262962970474194,-0.41660022622259135,84.42179362633867,37.41195302076158,42.72951235431937,104.14289687229068
0.2564587683550043,0.2244247073899926,-0.28236883884162856,-15.279658190773846,168.08789092092698,32.16219582106533,184.8203264472007
0.38179126631406307,0.19259221388399528,-0.3876573620218577,12.314478468821541,73.75505652687312,-39.92527820326529,97.2896870510889
0.10170646145721673,0.23160339102509525,-0.1506269060815525,37.90667333800188,217.98460859334833,-57.223224016964245,224.75459109254257
0.056026434708117356,0.26976281831996324,-0.12479979130142999,110.10614689250518,192.9711385707069,-33.2940192978743,177.3115634647959
0.34504681566835105,0.2112336346498272,-0.3617321636763946,-18.95947419090087,92.73400578426299,-22.035663384406533,110.3356554430587
0.3134375893997124,0.22489588281714856,-0.331220219834949,-32.62544862794327,120.21590067904427,5.660204149198229,139.76585455377253
0.4556932886846855,0.15037585392166153,-0.4085568378999117,65.82420143677683,35.01503017241475,-1.1777815469022883,57.08067047168693
0.2267660768539771,0.23126345657469272,-0.24527072877512535,4.711804448347674,230.58818512014966,27.521922760032986,233.19304123195016
0.1647059277672943,0.22614836173168507,-0.19274048696947266,17.002393977765138,265.9945906375058,-14.847429736978054,259.1929731547514
0.09463438830710735,0.25344840926202006,-0.1386695655047423,72.96914606252206,234.18387021009667,-45.25609742586574,221.86195567398252
0.013582508000635263,0.31158152455171306,-0.11530111133171167,178.4390786067659,192.92061604687558,23.324949019950157,190.43752686546117
0.4274940697396537,0.181516074520437,-0.39661467479378243,38.43052146340348,54.49840189820523,-28.337734065584236,69.00478462724574
0.2845792902046832,0.23673826027897155,-0.2965599689234011,-23.279189942413495,167.357825420008,26.945426919067017,186.07709454831573
0.1306382674157831,0.2389601512838498,-0.16154201813433278,42.18895428710123,265.09813841529444,-38.59917230078953,255.6216069091448
0.04714258416507361,0.29147746181734163,-0.11712943130428399,143.65806849314234,209.55733790747527,-8.347624393738666,186.16219973655313
0.40664949199070455,0.1982670464930381,-0.38714626060387497,12.69654709213794,71.82698547785226,-34.17391778596126,88.94904956106915
0.37327998150616915,0.2160562669654404,-0.3687552376777413,-17.602088784217663,92.10092949284021,-26.925444420612102,112.19858355967317
0.19468755550760047,0.23771149340617082,-0.20865611161014153,25.967423774935682,278.0140379708866,6.4143340394830535,266.2146410521476
0.48582358808679565,0.1380699690794499,-0.40305625178069493,89.7414733387409,22.370796201665538,29.19054502512978,95.40786186367771
0.3417611609408882,0.23253166877914233,-0.3425974787682676,-38.45351969958669,120.57013760034853,-5.772071069020797,144.05598853545743
0.08588102780329393,0.274802968083407,-0.12681296994213354,108.05773981880732,244.24932240268785,-27.840785421592344,217.40861274679304
0.25693745813217855,0.24749854654346443,-0.2594385091560917,1.8104646217749423,231.75010441840612,33.06782791621548,237.849231750359
0.45732948710697074,0.17312187815380553,-0.39653516843577297,57.882887007710124,36.557929322558635,-5.099620911306189,51.46698663030613
0.16038423888394004,0.24767852688031033,-0.17396168775417253,49.80533895143211,297.36253798021266,-17.314004099105087,277.4781667093275
0.12422535262154866,0.26011167729180473,-0.14602018134403155,76.89153862071123,282.1790459995874,-30.23574031029927,258.0363185204758
0.31273955137486353,0.246625522866238,-0.3111954558537955,-34.951370246643776,164.24569676911307,18.14788165907447,186.88738901975162
0.4322183238012238,0.2023466247973123,-0.3856625382047371,19.397191031113927,62.53216491402078,-22.970500764373305,68.23859638359849
0.2260729811543596,0.2533915595396641,-0.22304125961546117,36.7626126015863,287.0115503672303,21.96544225272021,273.17259608393573
0.04196925508981558,0.3149237579847812,-0.10863854276719109,172.51094511268028,235.21567245406192,15.581827166855696,212.69118647676765
0.40055466347866897,0.2215427245827803,-0.3726928239424283,-15.185464121076954,87.39129092491058,-24.2563996360173,104.69017209287719
0.012155183403206427,0.33913926311773746,-0.10705934927120958,202.4967803824214,239.39650104745124,50.5076596537905,239.77422950182216
0.370094354885659,0.2394982355488277,-0.352017357221916,-42.33289505803917,116.76146724001148,-13.4046791496893,144.59329668019768
0.07729954722316279,0.29649147962632316,-0.11508626639101921,141.55959460629512,260.498142656302,-6.652593718671227,226.1750664682556
0.4861256520616063,0.1645622687620349,-0.39195660473955246,82.0875848621587,18.86696035129262,17.055002660621145,80.11373115598238
0.19061607220259968,0.2585151015473184,-0.18706571795458876,60.61594428233347,320.0111821567018,3.040283049822258,294.4679938164818
0.2857989409273163,0.26071257323870933,-0.27477633002842095,-7.806905556346969,226.8343823220198,31.997855469905737,237.3968147248762
0.11615658825860986,0.2804285552943913,-0.13063857956967406,110.81391280519446,293.3026408733274,-17.768138723091596,258.362670299415
0.34114662637139337,0.25525005730369715,-0.32512763272773415,-47.408598125733874,157.81631980301393,6.53828172657947,186.45016449294502
0.15436024027186762,0.2683670901045861,-0.154683884263838,86.66604822611129,321.6142829763329,-13.406889979790353,289.1590324850132
0.45879587034577274,0.19809882739056872,-0.38610328061913113,34.75625116046383,46.23849172834691,-6.277094769487576,43.09436432395284
0.42895449112701545,0.22533651450320946,-0.37553458780925963,-9.538650526522659,74.75228414308367,-15.69070923432762,84.44241127421864
0.0369973079730499,0.33947494416059054,-0.09874394763497929,193.13841831645058,268.8383502935389,38.41002822014404,249.15754907979522
0.398308091882054,0.24625072037415846,-0.3594436423628511,-44.19078484264412,107.12281777759344,-13.95200948255605,136.91581592924814
0.25896224367519394,0.27301205817140267,-0.23594881709918353,40.44119928596166,296.98919815219324,35.052173761613616,285.5055861568418
0.010802239809496406,0.366393384064085,-0.09605712324669152,208.29725970676168,285.4352251100646,70.0967805632934,283.1012484196878
0.22170084751673286,0.2727852470807418,-0.1997559398568623,70.16899100719927,331.2533381362794,21.928337490059057,304.71512068789946
0.07102061397917048,0.32009304089811175,-0.10213677117226122,170.1045170311457,280.58527338243016,14.240205718410301,246.05521802113864
0.3140016483619943,0.27032819559440296,-0.29221116804786057,-21.364555843976973,214.20475237469788,25.75862143868909,230.01528061356188
0.36952720520222965,0.2641451857468027,-0.3371084115721297,-57.096304849654544,146.41005168889805,-1.6587545152304415,181.83404138647657
0.10638424898372795,0.30055025609691444,-0.1154270164560291,140.96094211367776,298.85032711929244,-3.550468829817893,259.02335617836087
0.18429788348782833,0.27818961380734164,-0.16444097093059296,98.165124164508,346.7922775539302,5.38848729133062,309.7506671078657
0.4863687609746879,0.19256727582205657,-0.383424034480193,56.47237634768808,26.578499422362512,12.210994017667378,53.309661642722
0.1475671424742792,0.28881586932785874,-0.13498820604401474,121.10551352991959,333.93600562485955,-4.232156010263147,292.90278804782423
0.45756170318782213,0.22457832561901597,-0.3778193867583376,1.796076094456783,58.54096456799782,-2.1779120909833125,57.78716378322946
0.4269738119751669,0.2511265786208551,-0.36592212567359117,-42.678856873608154,91.92089945206186,-6.769069855557376,119.71414457636206
0.0324567454671047,0.3658975840440542,-0.08591890343866643,203.29261124026775,306.85093005603756,54.586875544278186,286.43329620280673
0.061430695161862725,0.34182903144210075,-0.09099170238053639,188.11670100242,300.1407420694588,32.3348275406274,268.6028578175608
0.39745737239208084,0.27283491361561824,-0.3474920363355909,-64.60114231474391,131.7928873556601,-3.7901054079791194,173.49276214025846
0.3420555263797298,0.27899686908598753,-0.3091931076127894,-40.889948513291166,197.5192168358692,17.657629214104567,222.92993321684597
0.009109423194490374,0.3917374365549666,-0.08335580703599238,198.20330827748967,317.627174143203,76.89919947782812,308.15138664837684
0.2895109860750521,0.2878140324873125,-0.25286860997357996,29.381702197806725,288.11213219437576,41.14417338209234,283.6991175238422
0.13506367557282206,0.30552811565852,-0.11721943624393799,147.85637354964044,336.9578402173872,3.963465344626993,292.62237809533497
0.21415144765515753,0.29035097409853255,-0.17458025488075846,112.04328176621947,363.03155020758356,25.464404674456926,324.98563796174665
0.09863413748017502,0.3230024140385967,-0.0987553856756096,169.03124754937681,315.17017622933247,13.79087635888677,274.2275685746502
0.2538134602770655,0.2924150961705696,-0.2101802800083663,86.08351853388956,340.8853442641573,41.927246101032665,315.50318880040237
0.17823356396805834,0.2978732172290345,-0.14129893849465902,135.55602757004246,363.00814725852314,11.34540659639119,318.32147888765166
0.48599343277765616,0.22150747860738812,-0.37766334889355696,18.15743100131191,39.598917367830296,13.833331479669912,41.86687386129879
0.05251117038378622,0.366008730716488,-0.07746520035474752,197.49078471357814,321.30676622320163,46.89656125847585,292.2043549401748
0.45593879784699926,0.2521132536901302,-0.37137322222517255,-35.38063622288749,73.76354662178693,5.143988694587122,96.86089664238297
0.36985780612461105,0.29022490845629634,-0.32351794818780805,-61.419768427363636,179.91532576219595,5.92154208819499,217.47980141783887
0.42593969862152214,0.27975028612231223,-0.35754463891650934,-68.40742544348144,110.73343293308528,0.021785700314680412,156.57732756140837
0.3182547070005043,0.29617511449369327,-0.2751190528470161,-0.02059480289249116,259.24855096077795,34.6120850274539,266.09986858707634
0.12495591259431399,0.32345735692648636,-0.09921669801529681,167.9186771396988,336.64870647810415,12.575705764466793,292.35915135250417
0.027825536651741145,0.3931580142943419,-0.07060808614355074,191.1619407105407,333.422572348816,65.79276375210364,311.38698850055016
0.0749086713199777,0.35635391947425643,-0.07692424274862247,187.08511224164204,326.3184054102099,33.67281239107645,289.5458518304502
0.1509950879450077,0.3193941792276893,-0.10766197715404074,162.94033859723967,350.8203033352916,13.196952018113013,304.93300705223027
0.011850629575871685,0.41491987843489786,-0.06611158674218248,179.8184902911878,337.2405979199891,74.61917227755234,319.5745261552068
0.2089373411495799,0.3083236080244515,-0.14943951155220248,153.37618309173405,378.1057055631258,27.14093206652642,332.72459899294864
0.3959011772400963,0.30131092207948473,-0.33608589488631685,-70.82524737690278,158.55496046588794,-0.011188631237281754,203.4344755141732
0.34383428501702945,0.30259946287972506,-0.29500793049960905,-24.877558335294406,233.66125740386266,23.404795078842973,250.34526354634886
0.4854377846787766,0.2508243399095399,-0.3745494387288015,-24.355947285948847,54.345274563843994,20.62130492218165,78.39621373646618
0.24174168900282478,0.3054618505493598,-0.18241439087985217,127.35712084472414,369.42764906307315,44.099561333834146,333.8887483976189
0.09821029117153912,0.34604298163889463,-0.07995667837447018,181.69114224129487,335.12095102055036,25.646673451719565,293.94297096438476
0.45507600007390914,0.2812359266561811,-0.3668709952571618,-67.31749627038771,87.86413160855021,12.403935285913093,136.4848603729699
0.1760237081058395,0.31747220219561534,-0.11831187962360679,165.39372549000726,366.4205182372841,20.28956026333717,319.76620330569483
0.04774753643668478,0.3928269485377567,-0.05976851686917306,186.65071592522054,342.3428297537052,54.66124214052297,311.61213511481134
0.42234992479362427,0.3100670005070772,-0.34943396427285434,-76.37810477991337,132.92383090114998,0.7627538123701996,183.45728488032117
0.12559307743165982,0.3419911439582124,-0.08119493063898597,177.19538083459918,344.3123393471608,19.917130943278124,300.2144404158404
0.3687300101304662,0.3171326160588218,-0.30959834998049474,-41.55974870351275,214.74550249295964,8.093502441728461,238.67158820729506
0.3010940980105904,0.3176436180981576,-0.23694218434834075,69.28914524893979,325.0196482898183,52.75421773510898,310.2699570876677
0.07434587874087706,0.3800016887858709,-0.05725877508229682,184.228751432348,348.26024938339515,39.613526586731524,309.47306458462333
0.485488772551678,0.2799477654623195,-0.37417795118302705,-62.31886621352538,66.55347782628232,28.569403237727457,122.10313747686118
0.32839821321184165,0.32459718267181237,-0.2634567129785729,24.23803765463521,292.0958772094426,43.98361679858124,290.9146416418198
0.27971028802285447,0.31890616822053697,-0.20845951579605204,113.09876551401706,354.18882581749733,57.9700445718721,329.0354302183101
0.35406852060761745,0.3296820682936193,-0.28866839994430227,-14.884335484049558,251.0839100397818,27.592672516099125,263.22225818704635
0.46110148677241575,0.3079015931627767,-0.36800833873907696,-81.28341981081236,92.52955570628562,13.920629778555742,152.54895455892242
0.1525180444307594,0.3383743561720868,-0.08644739097698945,177.7368550279535,353.6641433407999,19.56862031495751,308.153137335568
0.39163789880797106,0.33216989300107386,-0.3230228431696149,-55.44167643896449,190.03423971318574,-1.3163180553650946,222.99732433350647
0.20429575220446056,0.3245047369745486,-0.12491840944669758,176.47114345869778,377.53323924573994,32.20916728413814,331.90658347952717
0.44458324778295855,0.32400440549795617,-0.36074356069642044,-83.54466499178153,112.67899074168065,7.367581601878744,171.03461144534327
0.01591264339560794,0.435388772762534,-0.04664548912447197,150.93732393747626,337.02935406371637,71.35528672745741,317.45122979621925
0.10042634209968704,0.36837035985143696,-0.05822465713795666,180.06428397854552,350.5387850561299,29.623059639754356,307.91824863550056
0.2400237422296037,0.323297579826781,-0.15682668060952798,165.89187535465732,382.3322248471408,45.973329543252305,341.4862746359164
0.41711895171762636,0.3418647914531716,-0.34185221373988195,-63.42834768626779,151.87307491723647,-5.947247837033103,191.90558523806686
0.48707938502802456,0.3087211200070184,-0.37713407907011043,-86.74659527241205,75.84234625262951,30.75797712213174,150.64613523513682
0.17732732394382522,0.33732661697512545,-0.0929080770092851,182.62399838932632,358.3462495262162,24.19159398153497,313.17189225569933
0.04522471975561326,0.4182298148590455,-0.039107316305621975,163.15389214996813,349.22236533449814,54.99197885511503,317.2866496696132
0.2639212278171197,0.32764713285988323,-0.17694571814606586,159.91065057545075,376.29507779612163,60.614321337571354,343.5376236978688
0.46660099024909163,0.3364150977394644,-0.3725675410463807,-87.56151505115714,95.28548183031009,18.136172308890387,161.4820279634335
0.12713729132543922,0.36062517078552975,-0.05986625212569774,178.65138004546017,351.1222910425298,22.04385668558134,306.48408091180545
0.44090028902111356,0.35396086628271595,-0.35945364891830134,-70.21816320243948,119.17212223509262,-1.2338086994474793,165.84691598442697
0.22477331237292575,0.3362831403588202,-0.12101295168366544,195.17998635821053,369.3313986453911,43.32337237370456,328.7028377309478
0.0736535289597739,0.40200104326847524,-0.035893887115548306,167.18546753493519,355.8623786535112,39.01714444835008,315.6913169937347
0.3652220055102936,0.35806076235943773,-0.28600557633620705,1.792373081544124,263.6290360742498,12.492799966554411,263.6269520135255
0.3895849254154524,0.3634784325043239,-0.31314239814372324,-23.25373001716506,209.41561729121022,-10.630788384250334,222.72038958310424
0.4884839747030569,0.3387813814184738,-0.38344896574966564,-94.0423218675954,79.43002079946883,29.111110144505986,158.63555808822494
0.3409228762333536,0.35425969333044116,-0.2558893381727486,51.57089485472444,309.8066450287462,47.715333779589834,299.15375280464923
0.15405151520760713,0.35577559981794293,-0.06301049451017504,177.77234163624303,349.1827257563436,18.640358268179067,304.13638300921826
0.012353076631736737,0.4587733894797612,-0.02860968965350824,112.81699783513325,322.09572346314735,66.86182773675499,305.8544908318851
0.24328177816456725,0.33765369653375155,-0.13761199420040066,195.49961535669036,370.10337303367567,56.64723829960671,335.36289014459834
0.4645050558761231,0.36443868726136364,-0.37690116839143817,-76.66740950979163,93.92253799898424,8.595409653513608,148.73390907730138
0.20057014110698113,0.34074092313076354,-0.09688123295598039,192.77142644743216,357.4959199165884,31.710570977373138,314.74726069540435
0.4138982948451139,0.37255391912793345,-0.33736272530117695,-35.92465733052366,160.8223886975198,-20.203022605916903,184.81449424482904
0.3184958047692302,0.34959233241716803,-0.22669330389199233,105.64316226736841,340.9142876088809,67.63024462474989,324.1748228789545
0.10122303931411958,0.38809671511221744,-0.03567145156969953,168.1741718178142,356.99757765933,27.38830637658933,312.9575187400794
0.438055768672893,0.38512118238584625,-0.36168063413751717,-40.980337145891966,117.92450151912243,-15.091876410463506,145.2634025551704
0.29937623185978024,0.3487230972975165,-0.19706203602415834,153.96222178957834,357.21533605506636,76.26027492875176,337.2779029992846
0.4880200474893771,0.3680206518345826,-0.3923772851947078,-84.73311932655872,76.51301557606827,23.260876303416843,145.39716173778262
0.1287545453743471,0.37773877016715085,-0.03658962605430072,164.77119351764426,352.602775739943,18.633922130635455,307.28025097351866
0.18004745943741457,0.354103891761375,-0.06671454172906593,182.7686537005505,343.2649080694283,20.19073868852194,299.53315436408155
0.4619593920237383,0.39505497606190104,-0.38483534963446275,-49.14570821112011,87.98562866992887,0.20104799751052838,120.33706321117931
0.24252972856753813,0.3492003340601068,-0.11303740399340767,217.92592816215782,343.6523013380835,49.497682235709526,313.1260597367414
0.22108911253211727,0.34738253047748924,-0.09716107590967799,200.8822540450849,353.29661540606213,36.561505949409025,313.38696391236476
0.3899033858253615,0.39659061651726446,-0.30756223676074107,14.642875001624098,215.9919242229684,-29.07350580704872,215.0348543604827
0.4096142162887026,0.4030657716774203,-0.3338343129201957,4.897145585104731,163.05872064453604,-35.81334952429796,172.22483598960383
0.05028421118412335,0.43899678376873014,-0.014127800930709977,135.85619517835423,338.6917536438283,50.852704980747006,308.0805569618317
0.4868192982382061,0.3966614351380104,-0.40437094378482397,-64.53607053317134,66.83228813769048,17.551723275175505,117.7656204862607
0.029724941448396713,0.4592611332635984,-0.011727442379844133,120.10922626318961,311.78264239614793,62.665764855108186,293.2024294701519
0.4299366660968605,0.4105268172462396,-0.35934150759778966,-4.492254312146887,117.94717252932531,-23.912196528693187,127.18861576158602
0.37034046523234704,0.3901156393255606,-0.27879066449417655,35.4297357773571,275.5983316648195,4.495350427998892,259.81908137881584
0.009418531389939977,0.4813368268793196,-0.009271319758664853,89.26772804261051,275.62602289701726,68.03253532337499,270.59046639166365
0.07661743441063606,0.42086916147165426,-0.012479407592717595,145.56666320052287,349.38828176557945,37.090130459063474,310.69208529486224
0.28281533018203553,0.35175960534029505,-0.1649806738488731,197.06910847486236,363.4269145728964,74.53900611547813,340.5338867109287
0.15646515904700836,0.37082459704518095,-0.03831399540963337,166.08504465475872,341.50685495794113,11.364920701740644,296.4447284964132
0.45897947090705105,0.426345815144492,-0.39739889899571473,-17.90213684296662,77.80415629640646,-6.347878806150895,88.81284022889099
0.48954585183812654,0.4206573486523328,-0.420816153478951,-43.545039916253245,55.6415170046681,13.511622053549381,89.23425791932098
0.4403934067752416,0.4311442079050203,-0.3802750616171221,-0.3272961162597312,94.69002950291974,-19.496920547575485,100.68609745854573
0.35132200577215905,0.38499355143971575,-0.24804203218769744,81.68140758648696,317.0145411304592,52.963735830963834,299.48514091363796
0.20526245375109115,0.35597736927502033,-0.06927383153515981,191.11486824317012,329.5388007212649,23.619574638294925,289.50751714219604
0.4760254859468661,0.43600775678789827,-0.41995316943426053,-27.078525053844082,55.922083630486036,8.094491058242161,74.6416496052566
0.10329600829937918,0.40517243523149515,-0.01212000660251722,143.82479241121166,353.43534788014233,23.759498429942973,310.5847578368373
0.2591744151487555,0.3537167917411206,-0.12238812016004713,216.1556649315304,353.619888478541,60.648197183768666,326.14102217813536
0.4922073798947125,0.44463372547355046,-0.44092968069834154,-24.453121146426295,38.73030110560635,17.029264133070345,62.57040525078387
0.42210571683508546,0.43613072830684924,-0.3598997440575476,33.85019736163938,115.0316425659532,-32.95337681738715,117.22647303471263
0.49068049228690813,0.4666520010546302,-0.45854887986436504,-8.461834913188937,22.619279702761105,15.109642686310973,38.20391316859813
0.47233414799707213,0.46252589903869334,-0.4367924014674893,-1.7200536940701525,45.47844784315439,4.765268053773,47.0913634758978
0.48967638463231866,0.48904767389244846,-0.4788014664636719,6.1491555339732,1.7155267267080916,13.382644303252995,23.822082417538493
0.40447898326066367,0.43605763170455547,-0.33314997026160265,60.85982956723896,150.96753064755313,-47.02369587549153,154.7286007845622
0.4552101979157107,0.45888031069173635,-0.41555410064605885,9.02521088443887,63.9232053816309,-5.507224277185227,60.677003605236614
0.46952447401949293,0.48796265045761456,-0.45699723704392065,13.13887884220562,28.296279638813402,1.5799076495746363,24.678259932825465
0.45056015478787126,0.4869856270679344,-0.43491143086227124,22.741948145088863,53.50289408111676,-5.6099161806062074,47.512201762751985
0.3336620749467839,0.38036861901320246,-0.2171013501264662,141.61659910776098,333.6505698343228,84.77742081949967,325.09865909556277
0.4379665980463908,0.4596489921313541,-0.3954653954175754,25.713146630783825,82.26975301038651,-16.751338420337788,78.45945426925812
0.2426004201116349,0.358420697653684,-0.08892844732937821,213.4195373066578,323.6385676275016,42.79589268787816,294.4715492121014
0.3886087064981265,0.43125616470699685,-0.304146058877275,71.44824309611484,203.5778162428267,-54.17485003832868,202.01050599870337
0.4326950918946411,0.48699938743151555,-0.4122622854986689,40.28425302251337,73.48716390634891,-12.811418777317545,67.49226732844001
0.42048690392032806,0.46120499569121626,-0.3722606547743015,53.85164621305999,102.67174648724829,-30.083319366606233,103.08958759753457
0.1842258448098255,0.3673155450895984,-0.04034429663215122,170.23399190451144,322.15800657004974,9.521442822172592,279.63390948660316
0.13076212423853983,0.3925684618972608,-0.012308101419631456,145.0681458628831,348.1054865493125,9.729297205434388,303.3268153061278
0.31777989926710715,0.37707121229106455,-0.18626112345285195,194.72587612266466,340.0160366934417,94.14084404206815,337.5005880741954
0.22973132547013037,0.3603061497667751,-0.07227693543539643,205.7016942678884,311.10504999522675,31.4862853532968,279.42595043042405
0.41636945977518813,0.48735178662454487,-0.38799410114828736,67.03425769846199,99.0535713851,-22.11413312249129,95.56319234110441
0.4045314376900886,0.4631977196401792,-0.34604693184811053,103.03481560563954,122.10680601763303,-43.72765118301947,136.679608919718
0.3734977112757828,0.4217734815516242,-0.27177851849269963,68.33614811786504,285.8223319074357,-7.87845317653832,258.87921396152245
0.27587943121389435,0.3605591871137904,-0.13230947534797666,224.89450704479555,347.72727869419066,72.98648004452014,330.56152759644925
0.40279743084007097,0.48842723985690173,-0.36359617016771195,92.00180891170919,113.72318365000447,-27.334520998960368,114.78712839969553
0.15906222538189446,0.3832235132082218,-0.012819958383881946,143.08870136615417,328.414106008114,-0.08002150470188774,285.197953630557
0.21231278594083286,0.36709691464002436,-0.04235582243286634,179.60822442617635,296.8992653334215,12.0366353219503,259.8410666671032
0.39234650106316993,0.4831422440363153,-0.3351911924953015,132.5354092718748,127.06360623383289,-38.72014581776216,146.17837309497872
0.30468073566310333,0.3764054457506224,-0.1544309997704998,234.3979073899145,330.19956102988766,90.75793008835328,333.59713516215135
0.3598051842646437,0.41644718163517275,-0.23964876565114274,115.01793246203836,313.7252785141993,62.99003490159268,295.75644669488645
0.2632340342170321,0.3677708021433179,-0.08644297076769503,228.12259131337322,298.03396058714515,50.518915900352155,283.7822431610223
0.3837080056015146,0.4590451442490274,-0.29341664039078247,123.08925639683373,199.33272747105994,-59.86667948451562,202.73342600300776
0.18804450346433627,0.37713967286831585,-0.013481911048577544,147.22356345843207,297.5971915528463,-7.472036858223581,258.05627496021253
0.3850627169269641,0.4827246212983719,-0.31049866542979243,180.2744085302001,128.99797614814986,-44.01125821247807,178.03167953448005
0.3475102396796024,0.4111977476537713,-0.20791173261934248,186.07760864597537,310.37345656999906,101.39127734674226,322.5578735093828
0.24129124666331359,0.3696827269900619,-0.04674323841206912,195.23385505425946,265.27948895488305,17.807507504159297,240.10258244041842
0.3745869686859008,0.45227007841366507,-0.26247250956933565,100.54742702267157,289.6610994260494,-13.425759632541723,255.79173640067418
0.2839112871853462,0.3759664111027551,-0.09587055470900402,240.91316440304166,288.75399277639707,60.57999661704939,287.8596723467684
0.2968840817521531,0.37892498118420354,-0.12059389726955638,251.31215021380072,306.65606215501214,79.04899938309384,314.4448693422023
0.3355115532382309,0.4047216185300268,-0.17700725217589158,236.92178850121127,302.3476072164691,106.65293924354157,331.71949287494255
0.21765473990135842,0.37419256800374756,-0.014309160367937945,157.49500997108404,257.1793726798637,-8.350686191135122,225.05697481485942
0.37821862652708504,0.48650775870860163,-0.28148430061754803,219.8043835823386,165.39175352009102,-60.433350221634115,224.21225702313586
0.3670972348272362,0.44870115923110937,-0.23072765439448928,163.40696979107372,295.0273898773053,84.25909401532884,294.6731266025938
0.3238776768469056,0.3985485597747559,-0.14534222353137088,264.6012518496441,296.0544576716974,98.08134290474456,328.9156939856736
0.2695555779116923,0.3754581962303727,-0.052565417833596306,214.68512620963693,240.7734693316299,30.83588250815751,234.99710476602607
0.37499700427641264,0.4840092164871981,-0.2531210541003415,136.02620451194377,294.8370222991602,-17.75721349039811,257.4342495318625
0.24762911376502517,0.37429210943422847,-0.015706891169095905,169.79929619544978,215.87549888021937,-4.62392052279122,197.0854285647574
0.360807462809544,0.44331466525865737,-0.19958328946830312,248.55165456228238,262.4946644148797,109.35226376546068,318.29490013151593
0.31566243444369846,0.39532102604320946,-0.10936229755616328,270.5424587477546,271.81744695257515,80.11087787216798,304.61950739300613
0.295197039260526,0.3844269534050968,-0.06392174900462749,238.53036858694895,231.307363941573,47.013326284996324,248.71019504456316
0.3529648967403296,0.4331102298777796,-0.1684127742710924,288.32187838940206,257.42671248447675,106.08360699324967,330.0567520677626
0.37369973227143216,0.48259226755259804,-0.2227473548482281,282.6311420219754,201.54247032040468,87.38128038064514,294.0136318502833
0.2774748160748485,0.37757974346365614,-0.017850662128721106,186.40985129555327,174.70018287088718,3.3175911405099505,180.9308450149129
0.3416310026561977,0.419058481319732,-0.1394270084405293,292.1341851670121,262.92044368632816,97.62004921710022,325.96090915752796
0.33571844063312983,0.4122077243111057,-0.11024801059139161,289.6627335280062,248.63058469196167,83.17065740526922,307.3348772891182
0.3181260558124388,0.3963344882742064,-0.07365475488243117,262.3095223881014,225.50894291985267,58.098153382779,265.7698478763493
0.3743511593609635,0.47985734623777676,-0.1920898398057322,334.3926468548759,191.5155790376815,70.82284017173797,315.4407741024744
0.31329257846988573,0.38953894262775995,-0.035502195781109136,219.97572699830567,163.22844606483193,30.614955878765198,204.7886143164066
0.3441430292889971,0.4169956778285749,-0.08951688745478359,295.31197972423746,215.59833844191374,72.0081416751718,292.53812428392905
0.35357825446557145,0.43102265001984486,-0.12217556117186135,311.7927954942403,235.94531967099812,86.74984351358478,319.2107398595077
0.3660703096216362,0.45332273063297823,-0.15581082919902234,324.60565724342985,224.28236625281798,87.2758944658863,325.1450951271696
0.30513589844012273,0.38262022665854806,-0.01461538861290751,201.97658857334574,137.38845528489242,9.357450539218158,179.39778179028013
0.3380848788826182,0.40858956666400326,-0.07159082375687043,277.2186255498138,201.28235266703436,63.068673008397234,271.1060811531835
0.3756707078543375,0.4758749735205539,-0.16920412100398452,357.8779554764973,185.84338845764407,57.10657582135751,325.4053274848643
0.33779302894042285,0.4009491578845628,-0.040378062233931866,242.398773908139,157.40805153425134,44.63688207793334,226.6192739149186
0.36770653092244704,0.44864507799903686,-0.1273899327855656,330.4231845520539,219.93853017727912,79.65648068828347,322.3586715851098
0.36173374277208264,0.43386411336736386,-0.0964131425548409,307.9261188940426,211.660670416198,75.28625601616432,302.40196158293327
0.3781385023999518,0.47132184401512445,-0.14625843966611718,350.4070103728105,202.67294204007555,70.49351410409443,328.2550551660986
0.3567309158105746,0.4221084800935885,-0.07071225934185937,281.90102824168576,185.40747821465055,66.3450645329136,273.4640135609388
0.33408284038365327,0.3906429125248179,-0.011289879195635177,208.30000161944687,107.33241235664818,16.53961466399358,182.68134088885583
0.35280483455199074,0.41124754303299693,-0.04700393196886066,264.3724522976041,157.70291533365432,54.39535608261666,248.8920667024304
0.3862140269787868,0.4907383310223098,-0.15368563078514458,362.67196332673103,186.56019705362158,40.08713724755138,321.7086304126844
0.3832888982687653,0.4696222297967207,-0.12454226230505921,343.02547968015097,201.50226577494655,62.518647157210886,317.60821018237243
0.37765697670918363,0.4511821775375964,-0.09929480696906401,320.65818435688914,201.9929254011111,69.90167190829445,305.795453860621
0.37341112203774396,0.4364683282990245,-0.07331340173933198,294.482723655491,186.0587343098618,65.50590947529743,281.81539495499555
0.3650044149080407,0.4225314626409671,-0.054600601300613116,281.9085189561369,178.87004112405884,58.830179675421356,267.2543477939797
0.3598507596845868,0.40177529221192354,-0.013320681232882214,222.49640651724252,98.61376491669836,31.84371878052044,200.82376476490273
0.39509353247130247,0.4903487633791053,-0.12816211891389823,355.35897765087765,185.67588976062552,45.16601805480762,317.6379263194268
0.39333938422353754,0.4701454507671173,-0.10011800676546312,333.36110217138554,187.46196706830784,60.4480055655011,307.80021070732516
0.3765809017985825,0.4235463002865794,-0.03786932080291866,257.03723530316165,137.04475291618334,56.54296794299546,243.34157454733835
0.390301477214662,0.4524591743916574,-0.07410663456253314,305.6322829533546,171.83358808694354,63.51575156874034,287.2677055553925
0.38363794818014246,0.43518649859841096,-0.05216115947389327,275.40316584296795,143.78551119291274,56.70685882723923,258.0100686303079
0.38704661417193603,0.41460122859488246,-0.010652795679473914,230.73628576618782,84.99936132646492,39.381160512150366,213.31740547823895
0.40712202186793395,0.4901826664270206,-0.10276357716787698,335.29249802396134,178.10645898366153,50.17248994540524,303.2771779379024
0.39307051758917466,0.42780040642148576,-0.02500982614729569,245.52308930075432,102.4660702508422,50.19852056130844,230.6139007422886
0.4068179450541725,0.47061848117221744,-0.07563960418735166,309.43521269782576,164.93147953086986,62.13089546651681,288.95965265552616
0.40293436418322837,0.45013573893079595,-0.04966060022349278,279.72518803650223,139.28944967111855,64.61862432929813,266.85513662213424
0.4222813350377451,0.4902020291054832,-0.07795978602940445,310.2226703488267,156.51684596276078,56.20001057797704,285.7549263376538
0.4142255662813653,0.4308439879427083,-0.008173757919616498,227.8525416504566,67.07041597557745,48.9858561899227,219.84517053167374
0.4220371863592068,0.46992053398769024,-0.05233827880724223,279.9456232982188,134.9512879064968,62.93299594869081,265.86475065491965
0.41770264415366504,0.4488161839944203,-0.02899503396675257,254.68338307419876,106.88245809679319,60.58906631022029,245.11100406262273
0.4397009977387149,0.4899995781560912,-0.05435014628482543,274.1614388988733,125.56840167416141,60.82480749614486,260.0093767842107
0.43593433696659023,0.44877337398699807,-0.009546188217151419,224.1872476198628,64.24501887393244,56.44033889164317,222.57799993139295
0.43900714089274195,0.4692301564308149,-0.03084698124524754,249.3585486230565,96.60623957796517,63.0555213001889,243.62031094926274
0.4587880078167195,0.4897886461293314,-0.03205954509710168,233.68760590132226,86.73059896314014,66.88504710268042,235.1277450580772
0.457896089346543,0.468748966006653,-0.010146268118592094,214.53918759283346,58.15263122706739,62.489536451689524,220.5620088991409
0.4790578914247237,0.4895511554558973,-0.01053844674455695,196.79525019943057,45.89705578027524,63.086749399008454,209.14684196482042
0.48240058283853254,-0.4912515276280228,-0.491129970611168,15.101136153233526,-8.746797332130413,5.294489177501568,22.819557424655397
0.46217153186154386,-0.47293038901595913,-0.48960185024494673,27.571139782720657,-5.196082381863079,-8.25777692393234,33.68978441436806
0.46268031547150007,-0.49012058049871193,-0.4719293613372463,21.60934790145835,10.799261327655685,-1.458357127584156,18.883945122137796
0.43964239443320186,-0.45798194499403216,-0.482868135958252,33.139364856050484,9.127265915100878,-22.033756156051794,48.327134426548874
0.4414198073414207,-0.4843964578917107,-0.4546794066059819,32.47511177076973,37.72915384240157,-11.646502204319601,40.740477254503276
0.4189468296940698,-0.4404367695807792,-0.4836479663314624,35.80595788364638,16.627985012061558,-34.07088620036346,66.67571847328962
0.4246702545423885,-0.4852249924182502,-0.43220623702243705,42.65936208570186,65.7129357633095,-17.48246787739719,65.20467183417952
0.4027739759988703,-0.44426196530035184,-0.4601052676756099,38.435273013395445,49.84502152113778,-32.43507689155774,72.12552953301085
0.4068375717981498,-0.4647518372253404,-0.432497847946438,55.4161208989568,75.2585053209423,-20.254189800761665,76.12457725692674
0.39475206817541697,-0.4211680011087384,-0.48665793214961256,30.38773282854858,25.82365954672116,-52.09478256528244,94.58938811227831
0.40796832891887486,-0.48686707575957205,-0.40386050274816293,68.54834996817398,97.17927157608895,-18.637142853380865,92.32138252312147
0.3822719194900632,-0.43499492384386806,-0.44644433292142005,44.4907178149505,82.15395092858832,-39.21187956732918,98.41911335877559
0.3696853818243816,-0.4074600483825104,-0.48599462941299937,22.294707584417807,45.623258155180224,-63.71655708171697,117.22106214496547
0.39462746369362367,-0.48573608341450386,-0.378408608652261,97.37349143037325,114.21979687898991,-18.11248683690567,111.31021946836074
0.38515321894951743,-0.45162943264646926,-0.4177361349178379,67.02414721643929,105.32577909505278,-25.274839544322763,102.1902053539946
0.36562950459782567,-0.4162986734841758,-0.46182301772695206,32.882739990176205,78.14738545723179,-52.76676920586266,113.89286230240592
0.36192873946525894,-0.4236749335651943,-0.4368834911429726,49.531002736614084,116.77880284831011,-44.095536890484645,127.04206761660116
0.3803767174355194,-0.4605177589240941,-0.38642187181797355,97.41753898649368,130.37222415425563,-16.868236673406674,120.99654841862055
0.34082088745883765,-0.39374313331858646,-0.48786392195795725,9.586859106291527,80.54258622762812,-78.35185717637775,155.6403103521086
0.3852892158177781,-0.4877796130573239,-0.34866471540706734,147.05982484333208,133.8116349242676,-12.17309680254948,142.47239377292368
0.34114943733144,-0.4020437680963714,-0.4636347740409894,22.38872024125363,106.06787959223799,-65.91806354578776,149.70804620106617
0.3629324511224752,-0.4328203071950393,-0.41144283373143975,71.99340193934715,138.94083212522813,-32.179972522795524,132.63270138309005
0.374364993268236,-0.4636657167551721,-0.356415285597021,134.20345371853344,150.1774114443257,-11.695732753032571,144.29090444533983
0.3117174529798747,-0.38448581641679247,-0.4881109324574772,-5.982480508173921,124.74240869462926,-87.81022566424092,198.6822458654563
0.3410630658220998,-0.4091324550678239,-0.43759317473912707,45.02280615047203,139.1822778055716,-51.65276075101308,152.10656098667502
0.37479378257404145,-0.4746474268187,-0.32873213995178185,173.40578548511792,152.80683378167336,3.7477759561766195,164.2073181211448
0.3606437630136885,-0.43793210169869135,-0.38260018408379814,101.20461524176214,163.28783806837617,-22.12395256413232,147.8114245012479
0.3153675533151869,-0.39072029261238195,-0.46447310788872215,10.420115827675275,147.60744808814437,-77.10644629784997,195.4345491997258
0.3756903729817776,-0.483527915156686,-0.3038739128136757,209.23015826904754,151.4148027041921,12.273168673473382,188.34821602825963
0.34162439818384455,-0.414892269769339,-0.4111330627051652,69.80136107357865,167.27085524470016,-40.84313713635282,161.80395919572757
0.3592840721501507,-0.44151661625806365,-0.3513423738303257,136.74336366424623,183.42039033842727,-8.473285060813069,165.75782225220374
0.31865977216459046,-0.3959720729961079,-0.43927717096212643,35.37538801560758,173.42381990370666,-62.758678769082266,192.3753096151587
0.28085661081152025,-0.3781466888899996,-0.48671836713876215,-23.317184269103276,185.77895339140306,-96.00872963920403,258.92543559062375
0.340720004234724,-0.4173263654453058,-0.38365855826960293,97.06665983323973,194.07162580869849,-30.492461093701003,176.17383023652874
0.3617756707959824,-0.4472748065793213,-0.31958073471246745,174.03964998589294,205.7956918413727,11.114361599680322,192.86172111725415
0.2888911356642612,-0.38206355668152214,-0.46396307016408495,-2.142128157484599,198.78034604057322,-83.02310321173302,246.21643865140155
0.3743804454623587,-0.48482569247242646,-0.27415054105513104,236.9885253556857,182.21783262315577,52.37235600225353,233.26370323938613
0.31966394879849125,-0.39876661392809926,-0.41431475174308696,61.742851247251224,198.25549285732976,-51.76870971531482,197.27280258709746
0.2963257964389148,-0.3853085711092706,-0.4408467753742105,24.446657575660936,211.17290782647837,-69.81031574295918,233.77254939794872
0.3451246695348048,-0.42100025823348286,-0.340801135557638,140.99925538217468,223.28724180588216,-17.301225069700138,197.87027241951859
0.3345517328338585,-0.4106445934527319,-0.36014505369363115,120.72619365188557,219.40710433491623,-29.982851577569228,197.28918081318213
0.36536256691887914,-0.45177691799777886,-0.29070454950423463,188.0443503435863,237.755757741476,27.105498085875965,222.22505509026698
0.2506093083649429,-0.37485530078538287,-0.4860646186679594,-39.45519239879388,244.1637250195553,-96.70602660777604,314.42380685453077
0.3191030558445606,-0.39838560198618994,-0.3902080406987472,85.19687111766605,222.12157773804435,-44.94455897650724,209.12311890093758
0.37541134866187525,-0.4860817526094875,-0.2448794565653496,173.36887117050767,296.85179134683756,-52.67221805277771,273.92695962576636
0.2729090302580332,-0.37703628624764474,-0.44972139408657646,-2.1696822045483515,240.30462239695072,-82.807061201762,280.7907261355194
0.29623879428098054,-0.38495528169186566,-0.4185847372937758,45.47311427661048,231.7513860641126,-63.736938098700776,239.63564767577384
0.34858233697786556,-0.4205470674359868,-0.3107514188997077,172.5671721836314,250.1608173637378,-6.255731453270755,222.05341957283318
0.370098147867412,-0.45434620685515387,-0.260808462069568,174.44038513974755,295.00408055863005,7.887836990232259,257.26034284486025
0.3782626565815861,-0.4886757949841076,-0.2175835586292046,328.2675833342082,174.71012377447246,-53.92199468707723,299.4232924055941
0.2201877935304777,-0.37454192805338216,-0.48695632967488434,-51.97248825562649,292.90237778104256,-96.22632147990994,362.62145919843886
0.24908650444621633,-0.3720539075986349,-0.4585864085452815,-21.010852102941435,274.82072238458693,-89.57491749169914,325.2892565730662
0.32955417986497365,-0.4004806623522992,-0.3357270292128385,145.27016356456073,257.7683957502309,-27.775079226817383,228.94600746787302
0.3160770291481273,-0.39303894321243793,-0.36673905362549397,106.28751100700893,245.4189552480493,-43.78038022074209,226.25802474314943
0.27161284554072984,-0.37401694910639766,-0.42466577280450013,24.56918874281427,269.49719200644745,-74.88207771463276,288.84776413771334
0.2965773934850759,-0.3827941240406901,-0.3955648357243454,72.41464556686269,252.09521619506214,-57.459144971581225,245.8559602973619
0.3766496083186551,-0.4576469809471206,-0.2313575733338325,213.92294685399781,291.8629000422019,-72.06817653369494,289.986679287233
0.35559298239934195,-0.4217589033776676,-0.280714771089316,183.30216474973707,284.5422093345194,-5.644962382952315,250.00469268022508
0.38456442660478046,-0.48624553300300594,-0.18906589114035266,364.9045568573239,168.47413697727794,-14.877050661186573,317.37339217236115
0.19020677973821676,-0.3773712180066433,-0.4876214418486098,-63.99804509425085,320.7053142440256,-90.1985548052754,389.7172043804082
0.3840203159530503,-0.46547570531571647,-0.20379228140282246,309.5056884459506,220.2836051551365,-84.59702241216213,312.4253152621616
0.22036999049506736,-0.36887404735475704,-0.4609631004487416,-38.5017580450873,311.1435236718186,-90.78332427242374,367.41949629686553
0.3318586007941069,-0.39435619230479024,-0.3099857290468132,167.23551028289125,281.93388546988984,-27.2224793233066,250.0565228396498
0.2472096982117425,-0.3663527633701704,-0.43047801407076164,3.2873866520826596,301.22746207777595,-81.09850213356911,330.8918869172657
0.29688467451554246,-0.3785638043448238,-0.3734219355939149,94.87099059244706,268.62504503134767,-55.007558513116855,254.46549871199244
0.2730158334388699,-0.36949601913637903,-0.3993486212051918,53.06010136747545,289.3027174645787,-67.71374736594315,291.4042894707905
0.3118624667524313,-0.38278677370130526,-0.34252358293199014,133.75588180875593,276.70898286896727,-40.95905311883716,249.95994720744525
0.39321863166784327,-0.4840146306270108,-0.16295843069775234,364.98283193988215,177.64511791515164,-10.578102926415838,316.6520584135584
0.366697175830556,-0.4243808576898671,-0.24822570319387727,191.89989465249442,313.29422181851146,-38.057099254487945,281.4298122823796
0.16068626886450563,-0.3834008194499914,-0.4881655423608164,-66.84389642733407,328.753229743691,-79.62732504216828,391.8462352450875
0.3790810129982349,-0.42929035539726174,-0.21755800704172917,232.95743803510163,292.99656652607985,-80.97430820285112,302.5408108135891
0.39170164055006373,-0.44203978555636,-0.18876202962514133,307.7548716120667,228.39682034515545,-85.0834369220857,313.53709212505134
0.40531038765500327,-0.48553238205545346,-0.1342290660446212,354.6992616784047,176.43303819747985,16.111020935837438,308.44482457201303
0.19117733929176184,-0.36870757601371057,-0.46289721716438803,-49.86443122908792,335.18022555568064,-88.34202031143316,393.6480078319282
0.4021282066493288,-0.4543391645610825,-0.16342188193359752,343.2894372284759,191.28381341914113,-52.79499718766823,311.6622490988866
0.22108865430023453,-0.36100129396252034,-0.43466827151022125,-16.347703475188347,327.3482033002106,-84.2527314161357,366.157142804445
0.24962524534489483,-0.3591844355154803,-0.40290109001526514,32.61758457121538,315.4974184642943,-74.40661365205673,326.9874563613021
0.27665053682899093,-0.3637618851161558,-0.37348216173202586,85.6386494075722,298.2904375864716,-63.3200152533386,287.7398933356857
0.4191850126035596,-0.48625079082145234,-0.10854595466693989,336.9683166954121,167.1555037048755,31.09579830928012,296.7546902460665
0.13196398510488175,-0.39269073358537226,-0.48850641150073165,-57.875584136727085,316.80538811562275,-69.94580578891052,369.76719880959143
0.2911845374897998,-0.36756844358999696,-0.3528652112136635,110.91267422391161,295.2323751913319,-51.61308336901878,273.3322072849062
0.4166007909462339,-0.45613266360339144,-0.13767730431973874,336.0220575791602,174.12303955292657,-16.337262691967965,292.4400665387178
0.310571215444883,-0.3716671275117101,-0.31934013708960596,154.66476015074238,298.31606837301103,-43.27689574845055,269.0601245722974
0.43443382002461306,-0.4885578350431336,-0.08398957242599558,303.2602460111044,147.4346644922349,46.012088982155774,274.48865455183955
0.4323070821886325,-0.4567224692628252,-0.11405357010965439,319.4205122319207,159.30804971127475,6.351621358112972,276.84524337163435
0.45051461451108393,-0.49163277735446376,-0.06076314257471105,270.4277053628957,121.66157212091443,58.3472837221207,255.43147561042903
0.4474828925833309,-0.46582119247282944,-0.08821912144935434,286.96122221234964,140.59647703988296,36.10766549491788,256.28044412712245
0.4626325826376428,-0.47551663944988976,-0.06249267811182008,252.20723362252687,112.9478269076578,56.332937483282535,239.58222150885894
0.46972417817549345,-0.4910870203201213,-0.03983833981971319,225.32653373113513,90.795232099991,64.32623320429366,225.76722277986738
0.4892397392548128,-0.48907588058455914,-0.02162719059995294,191.2439727442985,52.56154298114055,67.27974546258189,207.0376464965398
0.4165267849011367,-0.4288886855087769,-0.15100427249395793,308.45273906269506,192.60709252513914,-55.96361441614623,286.751072342446
0.34745182350800435,-0.3954154278561601,-0.2706485483433921,190.63227384334732,304.67063252733425,-28.525687799651173,271.15668403460717
0.4912644952329008,-0.4687527488798556,-0.03906509415360193,197.88273132354766,76.73556601723249,67.15646720232552,208.3056703889625
0.47564765862472,-0.4610548162419712,-0.061276728240805656,227.74044071785193,98.34825066189882,56.20211477848298,220.49092025243993
0.10490215441257066,-0.4051845777693748,-0.4889415160439318,-44.79078674627604,299.48802401731814,-60.71210496211262,340.8393674309984
0.49146628055401353,-0.4472918428610248,-0.05768677290928115,197.229024881133,91.95506943498131,57.39855612008833,197.74376629069587
0.16158540514000402,-0.37188822754872974,-0.46463122530397544,-54.78836180581734,340.8807431062477,-84.72328719935226,399.26413472482795
0.4639267617236393,-0.4459923479771097,-0.08545243841997496,255.98854128105611,128.14519987717546,36.076320218769794,230.33046991576768
0.4021166178554043,-0.4128925230555164,-0.17573206926249402,275.95481038689536,237.3122393329927,-85.7815023479119,298.4226880457917
0.33184512900564506,-0.38111960675251927,-0.2876238820748559,182.59676348873924,296.8785874442151,-37.8131800601242,267.5049798822273
0.35971112432285685,-0.397309350189484,-0.2445653000504952,197.65264861911675,319.16628727053467,-44.793338949935304,289.60137439264645
0.48705882355924834,-0.42764257001418576,-0.07690615594524758,199.5298339373204,99.56442710962808,45.23205674813896,189.72868270895458
0.4495168755850427,-0.43265519167696137,-0.10959752983154286,279.16320222094095,152.04340914335395,3.64380537831849,242.1656431413034
0.19297930530467264,-0.35826943637376174,-0.43830236807106127,-32.97451561703248,345.33483330131753,-86.15198486790561,392.4247802003153
0.3836769431665621,-0.40097823203100874,-0.20328887563413295,233.62726287635266,291.55629341100445,-87.7091999328451,307.4898090038949
0.0798864960429509,-0.4211051745739637,-0.4901996548591351,-23.9615066724181,275.8906597234321,-52.87616944847841,302.8006500902803
0.47415666071381174,-0.414345991410254,-0.09678543116915106,213.01238883934153,118.42622364561198,17.351781859343365,187.28600707771025
0.43593584967984794,-0.4132175043733858,-0.13301366167303114,274.6508226133525,173.78767839660026,-38.241461030140904,249.58271317969866
0.2242378254632002,-0.35143628226554324,-0.40817387243707604,9.731410834212618,336.7400554120835,-78.10985686771043,358.4899701133763
0.05530242174752668,-0.44004128871987913,-0.4911233478537375,3.107743458485121,250.07120603849538,-47.55916960955101,261.8276777693295
0.03236790785187665,-0.4593287968169199,-0.49059797719587434,22.71315082479196,238.1893513771497,-43.61734701797754,239.89048032347696
0.2558694978568258,-0.3510165545340163,-0.37366452666085004,67.13677412159241,321.2332468575841,-66.723855979686,315.4168674340191
0.010590147337376454,-0.479212557900484,-0.48974592507120324,41.4935513826235,229.11992027248655,-42.034255377232554,223.63204010776096
0.4874788986569978,-0.3941194520556909,-0.09648972279216816,166.1729425867862,108.89495757675434,19.949224009963373,150.2334107846888
0.46034377788883746,-0.39894256676780926,-0.11560597637361741,221.3618947755234,146.12242054780046,-12.020345491871428,196.0621852396403
0.131938884862067,-0.3786198249037605,-0.4657937347500473,-50.530908436046076,334.191003079377,-77.86053564982254,386.40750931931757
0.2867363880670863,-0.354317521223074,-0.3326877748615813,128.76247786892068,307.8881505235986,-56.0856796716173,284.8986805244461
0.3674082971127167,-0.38419412440403267,-0.2228454437670906,206.1511468976952,316.7097169752874,-66.6830820905839,301.4185945110229
0.3120502660098147,-0.35862574504200234,-0.2953895801726673,168.81161990304807,307.0617231274876,-49.581400696154226,279.8635807280369
0.4868597537783671,-0.37019227164016366,-0.107770635135784,134.81529403956887,120.05094325030822,8.032387284996371,128.82642199772044
0.16350002232917488,-0.3588221025384696,-0.44160544316041644,-42.89422936689511,351.0591752097406,-85.21389698232224,402.3991760819898
0.43245213392617626,-0.3851116000454301,-0.14434337059271646,236.69986287125258,200.30952241393123,-62.296954372970134,245.7238794627562
0.40966835032365806,-0.38404924635435295,-0.16690683696223801,241.16597033757802,241.30907758231362,-85.30762907713468,282.8917338176816
0.4587401744240317,-0.37684488357138424,-0.12451663732987078,192.48615648563748,158.39104095275152,-28.229886358611815,184.5029513298245
0.1965766600082568,-0.34634265796171126,-0.4138228714644948,-12.746301202730418,350.8373623430533,-81.24059195410531,384.085020596922
0.10258805178663484,-0.38911916412922987,-0.4662787274902406,-34.89711495269672,314.13778378964855,-69.83364198914143,354.25001178347077
0.3488804984985539,-0.3678774802541672,-0.2424613629577223,199.38473300840548,320.95804795963437,-55.997304568554505,296.95336328183214
0.33560462312804706,-0.3672316826772333,-0.26414192687838267,190.83516484825776,319.6995023865453,-47.365705968810126,290.4246116202885
0.22946204469527773,-0.34068638769881304,-0.3817315514822204,37.24894237019416,339.2209262899888,-71.86497520891345,345.42209511252986
0.3882595336475884,-0.37234178874193424,-0.19031409559633183,215.5652595756402,287.54338047336114,-87.19048426613548,299.9529212704116
0.0550176619247276,-0.42437641824624633,-0.47426971949948227,7.508495539744867,268.5998325396574,-51.10459603682317,279.32151028745136
0.2614458202231989,-0.3404335305671229,-0.34564076984976944,96.11871859669776,321.4032111924963,-63.351658978313196,306.08212215473554
0.07842503889030669,-0.40532546468482017,-0.47080805805398035,-16.505442743977444,292.38125763661424,-60.14799186553418,318.49404129597974
0.4872443476453615,-0.3443587512824803,-0.11612912601600384,96.62738624272794,132.25931681456458,-2.7686805344910432,118.6275825515409
0.033027497566962924,-0.43994111585435497,-0.47187081083702037,29.828952262326766,258.18382847737985,-45.589972770184175,257.06543804507663
0.1330481729657431,-0.3631341209944115,-0.4441249124181542,-42.65283417559026,342.8927112264844,-82.42218015882398,392.9379963477982
0.28947607862941926,-0.34059851920092865,-0.3063521012863354,145.6513351343439,314.15946712230107,-56.30852726045613,289.248486779538
0.01084642172255185,-0.4579278466806812,-0.4693732806713063,52.1217221844956,250.8494985579551,-41.157841927785796,240.1027713974899
0.46009049573745125,-0.35193443371751193,-0.1290995927272855,149.47579069656163,173.05036045776802,-38.93831184221367,175.9862954509251
0.3676517174983671,-0.3584057570034172,-0.21059367605866658,200.58753109724177,311.08538123901076,-73.28280707391758,301.1988262046008
0.1672462138880786,-0.34435219076854223,-0.4189451501278576,-29.741600099842984,354.3167478151465,-83.44022901725265,397.3030116124856
0.3174054350040837,-0.3437593847490988,-0.2687908054233392,178.08180373385133,315.5845935604244,-52.83205632911206,288.93004238021507
0.4350238384148951,-0.35515475866713064,-0.14541550186151803,183.01693954524288,212.96433229375083,-66.57714943517897,230.58724410052315
0.48824112403276454,-0.3180060636094764,-0.12164698719681993,50.22715830152484,144.69298518703806,-9.612189442926018,128.32962432319903
0.41214541204370814,-0.3522633273452952,-0.16325538159753816,190.5275380528573,249.68726270682515,-80.47117472613661,265.51648226284357
0.20167655859383857,-0.33329730450540224,-0.38952007065929434,7.791407998667339,348.6316408274958,-75.67675004449632,368.8757340374037
0.234697636466614,-0.32832269539043024,-0.3559715292809897,60.099035273779435,332.9695624859377,-67.83589993791296,329.05106300259547
0.06252836579791583,-0.4034157738018625,-0.4581197522811557,1.9016178031577256,289.4014102804821,-60.67501952344979,307.0029894497217
0.46261852063359743,-0.32756646946829354,-0.13074924878451566,109.51555501825457,181.5469271719141,-40.77726147201953,173.3755640939696
0.10194792489633633,-0.3714974591232164,-0.4452735316929982,-29.956368277654892,324.79936300688155,-76.54182433805418,365.64705955830823
0.38930420901801366,-0.3432855524349597,-0.18183183600427638,186.11216276496623,286.09273192327646,-84.13231743108892,290.6478828544514
0.3459104828512202,-0.3458024378068681,-0.2313715556766862,193.60861017405435,320.9682865518671,-62.97367693360749,300.4326263839048
0.26491685128083076,-0.32606191622392067,-0.31889911667393384,114.27623048827633,317.2969468798614,-61.390666296215684,297.9653537643291
0.03663665185801729,-0.4176290188505902,-0.4539263407501577,30.69008793073879,273.40078695274315,-52.930862884829935,275.1439738552543
0.4744988382832651,-0.3034348856452906,-0.1282214309392976,50.48994020915531,167.4868930195968,-27.65279178910447,156.32888684596972
0.1366503482952444,-0.34590118484140664,-0.4230192926928922,-36.459432683831295,346.52215453756213,-83.6793421305272,393.76083081230007
0.2940328966787657,-0.3246256893478447,-0.2798651726689263,155.68470783415657,311.65153469432926,-59.00854727403955,288.60189736029446
0.4391227418594832,-0.32726408437284515,-0.14303970232236635,132.06140671314444,214.03401153164472,-61.60586741575853,215.3392423321872
0.17250388991711083,-0.3288739163755464,-0.3965602609526264,-15.977170935285374,350.8999532109344,-78.59407214262359,384.0879068859703
0.011863948246234369,-0.4352767643746841,-0.44998244983910557,59.916619410977404,261.32511434690787,-41.43793459643232,247.73858504896882
0.365288035140614,-0.3314486176356349,-0.20054832984769289,179.98225040784692,306.429084212896,-76.79995261150864,298.05250562571064
0.4149842717107581,-0.32355999934460744,-0.15740550548106852,147.38652896417474,253.50313542341948,-79.11214978285389,259.61486495925703
0.2070618552856953,-0.31901337639225863,-0.36551653897073355,25.88174590647553,339.5533535759912,-70.07559054112538,349.1559483182069
0.48544803802948583,-0.2807065479819114,-0.12598770161054074,7.448274680736414,163.11043856812285,-22.302529042818975,164.1274170300979
0.32375271214061846,-0.32720526329978744,-0.2444882140550797,177.9614281017223,315.90406699806124,-62.658857204821075,295.0005215087685
0.07133089014504641,-0.3818756775226712,-0.44292594081066755,-5.815025567101752,302.1889687520278,-69.64376418947367,328.11581127490075
0.23879842005852123,-0.31342880524578887,-0.3307378318176835,76.78074381692923,320.891608975711,-64.46644441665084,310.96009113310765
0.4468586112254789,-0.30152110852887165,-0.13806194386280785,82.18186234934643,214.44040308854022,-59.72585845591032,214.04898456219794
0.1054904728127714,-0.3511253662888797,-0.4253667577711665,-29.715878773812104,328.52987541003733,-82.14222925102332,372.58489491453867
0.26865467484569183,-0.30923853806670126,-0.292927800767783,123.26401260797651,307.518178541888,-62.12543795568321,288.84984407911145
0.39000355828358074,-0.3159844620898324,-0.17299837302399362,154.8539616838283,283.33562051135976,-84.18997258504766,285.73945199957467
0.33985846101319966,-0.32086575345399854,-0.22085196429009435,178.11662998542567,310.2757820288193,-70.15710679548963,295.7995554960079
0.14201761372530194,-0.327635739887041,-0.4023980973634803,-30.16586557824312,343.0397840612057,-81.32841622429521,385.71660421283366
0.040880042088024045,-0.3950441326553866,-0.43779746270136194,27.815524205078102,279.30022605512295,-59.041616163564186,285.43155883774125
0.4876739208288486,-0.2544538840258653,-0.12572526344818957,-25.57893448234154,165.69043241995098,-26.529448856567505,185.62656321195715
0.4547312071652359,-0.2786908011542064,-0.1330405209787356,46.07007198252791,211.42592537171842,-59.3596526604253,218.29720782184575
0.1783962745957891,-0.3124691515456654,-0.3743389441216831,-3.493771653940499,338.58747367985535,-72.59343396316869,362.8306093136209
0.30038537646605884,-0.30640376260577346,-0.25319630230845697,156.70973777692745,303.61250782404716,-64.25288494991541,285.5604314459199
0.4199994570324839,-0.29784764494451643,-0.14959023449908648,108.7295874830005,250.4217876363706,-79.9700519073181,257.8576445578806
0.2115809047955411,-0.3029120489729687,-0.34187344274342085,38.96509163499842,321.58387527496836,-65.68014932919556,324.56982004228223
0.07450590921997137,-0.3599675249621039,-0.42535083299132465,-10.569243535152683,305.45984990036766,-76.65649716641768,338.04521003461014
0.36317000183047865,-0.30628304857466404,-0.19012301078681693,159.98326065181303,300.3731809937229,-81.02911128957248,295.73833243337685
0.01307586743672417,-0.41177646683169394,-0.43235294927627493,61.00617362207409,261.08707702463136,-44.85468181860017,248.99019840341413
0.24190685793491976,-0.2958568409912584,-0.3061014659017621,85.12254599582369,301.4925300884679,-63.20156543946255,290.6253522975929
0.4600513475045377,-0.2572302032362831,-0.12885810440640783,20.663036813659346,208.3819266303308,-59.64935369254094,224.09444705989696
0.11015886969760232,-0.3296966113623273,-0.40638021638609056,-31.607134126271678,325.88864901031695,-82.58893231416991,371.43724092143464
0.393007120974272,-0.2912900989198281,-0.16232938291419358,127.00295895813336,278.252578401896,-88.56047611475233,285.9094646311462
0.4734625562181546,-0.23672271556652047,-0.12467602471291495,-15.026110672342142,185.80208394319504,-48.62026568804175,211.26256597604115
0.42635487562598073,-0.2745006845986247,-0.14125852108524178,77.5100005070867,245.5447193961404,-82.16609196755446,259.84926031199797
0.2719197134147317,-0.29011423672113473,-0.26817477459817096,124.36313804969281,289.0595078412169,-66.48192408465988,276.28387645813757
0.1487664470149891,-0.30874666280621027,-0.3820228234202323,-23.542549911092166,332.0348492151418,-75.63125895405223,368.481480881241
0.33353769717521936,-0.2969651089438043,-0.2108458244188735,160.14755507402685,301.511501457952,-74.74065471882865,291.5966246818105
0.043364630934620285,-0.37243720511538486,-0.42247710316325565,20.87476054085344,275.7693540506839,-65.87888822176899,289.39239238595155
0.1835210572048415,-0.29472372974838795,-0.3523720625065706,6.30937522247461,318.74198642784927,-66.1983519263537,335.8152240882404
0.21451287748903228,-0.2844255731195931,-0.31883175646622364,46.27621298110112,295.79958860035885,-62.393070883014424,296.0221032707863
0.43375564294903174,-0.25216776384081324,-0.13296252104299938,44.98695851743405,237.56538082589609,-81.8508481574655,260.5234667040549
0.07750283216146665,-0.33736587958855446,-0.40898072265552526,-18.931186895132768,299.53105260165796,-80.83851333660888,339.6355625711665
0.4846095265553527,-0.215873882060064,-0.12100341157970146,-36.91504302977567,175.57000270794376,-45.83305162609621,212.06302440911367
0.3038580765670846,-0.2850690988086827,-0.22980798696120414,147.7405219518992,289.8207335811201,-72.9328595273899,281.0029519148992
0.36475999153616206,-0.2830728836407267,-0.17667470501535343,138.4900789076314,292.0400279788776,-88.96986945763885,296.2585802853512
0.01386754253424624,-0.38737037029525806,-0.41660022622259135,57.20733488543127,251.3383170768089,-50.38249643627188,244.29576615773664
0.2435412316449957,-0.2755752926100074,-0.28236883884162856,85.75959293831859,274.87467687005153,-64.32493801017822,267.86330155132055
0.11820873368593691,-0.3074077861160047,-0.3876573620218577,-32.46216435571343,315.70505074515694,-79.1757757691579,360.2476243250211
0.39829353854278327,-0.26839660897490475,-0.1506269060815525,98.51077208961652,271.46480181079244,-94.22300703305761,288.59873315970077
0.44397356529188264,-0.23023718168003676,-0.12479979130142999,14.981680981949378,230.73645466262565,-84.63274719222653,267.38557929060295
0.15495318433164892,-0.2887663653501728,-0.3617321636763946,-18.48797794484457,310.8302894599132,-67.62119836954993,341.2063556224431
0.1865624106002876,-0.27510411718285144,-0.331220219834949,11.590587454824757,289.22438147564105,-60.55234527691831,302.37817981058
0.04430671131531448,-0.34962414607833847,-0.4085568378999117,10.951224540990413,266.51743583143997,-73.879334575701,290.8732522410387
0.2732339231460229,-0.2687365434253073,-0.24527072877512535,117.84762209666489,264.9101653903859,-72.7283129632114,262.1347882672829
0.3352940722327057,-0.27385163826831493,-0.19274048696947266,142.18434835746095,288.7714535167924,-86.71270142547613,291.7256212728429
0.40536561169289265,-0.24655159073797997,-0.1386695655047423,71.11483940965627,267.11597284303883,-101.92822330200917,297.62466620925454
0.48641749199936474,-0.18841847544828697,-0.11530111133171167,-41.49501745931293,169.78044749698043,-55.467719575075314,216.38457247211124
0.07250593026034631,-0.318483925479563,-0.39661467479378243,-22.368119860307633,279.1468100343061,-81.43319775902742,323.3594914884463
0.2154207097953168,-0.26326173972102845,-0.2965599689234011,47.24374675039379,261.65928095197705,-60.36386946556284,263.18658081616206
0.3693617325842169,-0.2610398487161502,-0.16154201813433278,115.65511854469152,284.4995582319714,-100.01331122470712,302.3578380213301
0.4528574158349264,-0.20852253818265837,-0.11712943130428399,0.23467992028593443,220.60344471580845,-88.06237261609499,268.10279392175846
0.09335050800929544,-0.3017329535069619,-0.38714626060387497,-32.95995301422659,290.5127945299521,-78.56921974349223,337.01438725868155
0.12672001849383088,-0.2839437330345596,-0.3687552376777413,-32.766199021200435,297.27376978629263,-70.11830766707189,337.54345011588254
0.3053124444923995,-0.2622885065938292,-0.20865611161014153,132.8046407719744,271.02964763480287,-83.99579170359442,276.1630434845775
0.014176411913204323,-0.3619300309205501,-0.40305625178069493,46.74711497457323,230.7112499121218,-59.649007303669116,235.16356113528633
0.1582388390591118,-0.26746833122085767,-0.3425974787682676,-14.456810733125849,281.55294663273844,-59.0557199269068,306.6172744044768
0.41411897219670607,-0.225197031916593,-0.12681296994213354,48.21216247492817,259.6839287606446,-109.54847726777058,305.3569031749541
0.24306254186782145,-0.2525014534565356,-0.2594385091560917,80.7306310925913,240.1426253808035,-68.27982743076458,242.45711811389245
0.04267051289302926,-0.32687812184619447,-0.39653516843577297,1.3925214137584199,247.77183260611093,-78.92131100382446,282.37123181715134
0.33961576111605996,-0.25232147311968967,-0.17396168775417253,123.74270981518953,279.20590882665726,-100.62497163582351,298.4872807200223
0.37577464737845134,-0.23988832270819524,-0.14602018134403155,93.3353597663873,278.9570958996967,-112.9548211474124,314.27434621944644
0.18726044862513647,-0.253374477133762,-0.3111954558537955,14.09781302522331,251.92846365967085,-54.94282013403715,263.00418097523453
0.06778167619877616,-0.2976533752026877,-0.3856625382047371,-26.95269014575329,252.9610677952348,-80.5944839602627,301.6954476618521
0.2739270188456404,-0.2466084404603359,-0.22304125961546117,108.32549088106225,242.1228116861999,-82.06838683261587,253.64434911104792
0.4580307449101844,-0.1850762420152188,-0.10863854276719109,-7.972772499369086,209.6746194132651,-90.03647850506434,264.60990448521903
0.099445336521331,-0.2784572754172197,-0.3726928239424283,-37.20440806492512,275.35991887631735,-73.34637771316034,321.8554474613681
0.4878448165967936,-0.16086073688226254,-0.10705934927120958,-33.52221341312115,162.7076518034245,-64.65110586373248,213.5208089236553
0.129905645114341,-0.2605017644511723,-0.352017357221916,-30.998630479640116,270.0912117993883,-59.739736984839865,304.94121397131005
0.4227004527768372,-0.20350852037367684,-0.11508626639101921,31.602676231661185,252.19304441158323,-115.2334909494812,310.590337862243
0.013874347938393686,-0.3354377312379651,-0.39195660473955246,28.754167258403044,203.42818806539555,-70.53965055127449,226.46842735638816
0.3093839277974003,-0.2414848984526816,-0.18706571795458876,119.3440203464759,257.1481043120468,-99.27196878081021,281.5027984008671
0.21420105907268375,-0.23928742676129064,-0.27477633002842095,46.42864000455433,220.24237060895985,-59.93447727999745,226.3033172223807
0.38384341174139014,-0.2195714447056087,-0.13063857956967406,72.75971487026314,276.8071880324169,-124.42166707302852,328.9651001106842
0.15885337362860663,-0.24474994269630285,-0.32512763272773415,-11.542383718314749,244.60504072011878,-49.75321441849495,264.9798574268157
0.3456397597281324,-0.2316329098954139,-0.154683884263838,104.78938946276419,274.22160007116673,-116.30490313288165,313.08669648973734
0.04120412965422729,-0.3019011726094313,-0.38610328061913113,-12.0717640407617,219.13268459314475,-83.40002429751985,267.72536518709296
0.07104550887298457,-0.27466348549679054,-0.37553458780925963,-34.0470902163356,239.5964624612448,-77.60170813332044,291.18603480370075
0.4630026920269501,-0.16052505583940943,-0.09874394763497929,-7.999314618997843,197.4237583163375,-93.44430875052775,258.4857842353243
0.10169190811794598,-0.25374927962584154,-0.3594436423628511,-38.36099354966184,250.4782463188311,-63.50200133689116,293.1160599793418
0.2410377563248061,-0.22698794182859733,-0.23594881709918353,73.537685952001,199.3003071025761,-74.39278262836939,216.96815110537568
0.4891977601905036,-0.133606615935915,-0.09605712324669152,-19.51332900770223,150.7023852344621,-71.0405421562568,202.91121220674157
0.27829915248326714,-0.22721475291925816,-0.1997559398568623,100.22249860395863,226.38272240888108,-94.9642921419435,256.241476925875
0.4289793860208295,-0.17990695910188825,-0.10213677117226122,21.32397757373849,244.2687180644518,-119.76031786492683,312.9548516699632
0.18599835163800568,-0.22967180440559704,-0.29221116804786057,15.76661159678973,207.374765681728,-49.319624956477355,217.44093063372245
0.13047279479777035,-0.2358548142531973,-0.3371084115721297,-27.955788682130056,236.5513461246204,-47.34238570996921,264.7167342142874
0.39361575101627205,-0.1994497439030856,-0.1154270164560291,55.35019636680529,271.98028683877544,-132.2585831411671,338.3190163526834
0.31570211651217167,-0.22181038619265833,-0.16444097093059296,103.68192252102514,253.55686646930872,-117.18004559200025,299.90873855604093
0.013631239025312124,-0.30743272417794343,-0.383424034480193,9.605029525816775,174.9425613636348,-80.43729294984512,220.06204168992622
0.3524328575257208,-0.21118413067214128,-0.13498820604401474,86.70654482340647,275.30181603324775,-132.95877226706145,335.3695736688981
0.04243829681217785,-0.275421674380984,-0.3778193867583376,-22.667494324364753,196.07535643686572,-83.39620517467351,253.51267984575887
0.07302618802483314,-0.2488734213791449,-0.36592212567359117,-36.6128774397406,217.9443651352165,-70.868984495233,268.11762028659086
0.4675432545328953,-0.1341024159559458,-0.08591890343866643,-1.1258418829585644,185.60260593777377,-92.0742989735547,245.13584730227353
0.4385693048381373,-0.15817096855789928,-0.09099170238053639,14.367959170308993,231.5187419337982,-118.0170136374171,303.7514786955696
0.10254262760791916,-0.22716508638438176,-0.3474920363355909,-34.895342213773624,221.24504898919537,-51.136703179707965,256.38323959318706
0.1579444736202702,-0.22100313091401247,-0.3091931076127894,-6.954710145100293,203.88307247578814,-38.89435423057327,218.11220800535526
0.4908905768055096,-0.1082625634450334,-0.08335580703599238,-4.999163379544941,142.70233473504447,-72.49583167748648,192.0137419330773
0.21048901392494787,-0.21218596751268745,-0.25286860997357996,45.28567266880467,169.99274969853332,-59.78955097189822,184.3216273161675
0.36493632442717794,-0.19447188434148,-0.11721943624393799,70.42233316017378,277.5608270316643,-145.13930020849895,354.4701483507815
0.28584855234484247,-0.20964902590146745,-0.17458025488075846,91.6456417057276,217.93215774229162,-111.16487334026016,270.1734697773409
0.401365862519825,-0.1769975859614033,-0.0987553856756096,40.49102644227938,266.10266525989925,-139.0892731384161,345.9954614325028
0.24618653972293453,-0.20758490382943043,-0.2101802800083663,72.72335384203708,180.12707160351607,-87.89024226291289,218.65289252337928
0.32176643603194166,-0.20212678277096552,-0.14129893849465902,86.54681724499652,256.0627791457441,-134.8044571673818,324.6749218921686
0.01400656722234386,-0.2784925213926119,-0.37766334889355696,-4.575669313837604,146.10047779796741,-86.61277975837434,211.0452906081515
0.4474888296162138,-0.133991269283512,-0.07746520035474752,12.48044936882631,209.70178342699373,-107.93371233570066,276.5185090983853
0.04406120215300076,-0.2478867463098698,-0.37137322222517255,-26.26812353067195,173.22770132772501,-79.67204982421521,233.00455799854615
0.13014219387538892,-0.2097750915437037,-0.32351794818780805,-21.04193678686525,200.82965014611685,-33.20639794880757,219.7934277430986
0.07406030137847787,-0.22024971387768777,-0.35754463891650934,-32.84238502806695,191.40469085177858,-59.79684385622514,233.93920597673718
0.18174529299949568,-0.20382488550630676,-0.2751190528470161,18.506214874822803,161.39200838634267,-39.172299195594114,167.35146323382114
0.375044087405686,-0.17654264307351367,-0.09921669801529681,51.796462717250805,280.3684560634489,-151.21057874256908,367.91462025152805
0.47217446334825885,-0.10684198570565812,-0.07060808614355074,11.118334891459746,171.0777363665388,-82.88688843751052,219.316708233136
0.4250913286800223,-0.1436460805257436,-0.07692424274862247,27.64236986044928,239.70534835340968,-125.55769699317963,314.46929351959295
0.3490049120549923,-0.1806058207723107,-0.10766197715404074,64.7981266686618,278.8968740262437,-152.74263152167958,365.92513311227316
0.4881493704241283,-0.08508012156510211,-0.06611158674218248,11.965667884953879,151.09653842175373,-70.58673690684043,190.0337665129941
0.2910626588504201,-0.19167639197554848,-0.14943951155220248,79.46173239278234,219.94315614813087,-133.45440392603425,301.06864402915795
0.10409882275990368,-0.19868907792051527,-0.33608589488631685,-26.116530303002065,191.50008489009434,-36.29058942109704,215.18990236447553
0.15616571498297055,-0.19740053712027492,-0.29500793049960905,-0.6654120234115055,166.8089277774497,-27.74701327535928,173.91477241076365
0.014562215321223404,-0.24917566009046008,-0.3745494387288015,-11.090030943873629,118.49131452010415,-86.62960972904888,194.91362341578
0.2582583109971752,-0.19453814945064016,-0.18241439087985217,76.25270614954502,183.12814000958824,-104.20258915566879,240.75072870268048
0.4017897088284609,-0.15395701836110537,-0.07995667837447018,36.63201770180822,265.88252933185254,-140.55464450129168,348.65804863272047
0.04492399992609087,-0.21876407334381892,-0.3668709952571618,-25.07607590222429,148.57098926609655,-71.00584077444277,203.84605492901363
0.3239762918941605,-0.1825277978043847,-0.11831187962360679,70.07253189982299,263.3048863898412,-150.78662997924346,352.134926149309
0.4522524635633152,-0.10717305146224335,-0.05976851686917306,24.733979779644486,201.21234025222853,-97.456351884248,254.19405035929535
0.07765007520637575,-0.1899329994929228,-0.34943396427285434,-24.336486452777386,166.48880236321565,-46.20206764393503,196.8919285602634
0.3744069225683402,-0.15800885604178763,-0.08119493063898597,45.68609234937116,283.4381128335884,-153.59480809995006,374.4987293280925
0.1312699898695338,-0.18286738394117816,-0.30959834998049474,-7.592071641574805,164.86692188670656,-14.785618785444957,170.7227768492052
0.1989059019894096,-0.1823563819018424,-0.23694218434834075,42.55687432335249,124.09113600660378,-52.980650680412694,142.65207586105336
0.42565412125912294,-0.11999831121412914,-0.05725877508229682,32.221197475165134,240.67451742169624,-117.65735341886636,304.52810410602746
0.014511227448321985,-0.22005223453768055,-0.37417795118302705,-8.21708153448182,91.5480556227737,-83.11683261440714,172.99146899828477
0.17160178678815835,-0.17540281732818763,-0.2634567129785729,27.72616266019449,121.2716117251276,-24.25962271812982,117.80804453343936
0.22028971197714556,-0.18109383177946303,-0.20845951579605204,53.59157222987595,132.16990113533006,-77.35726004404475,176.66404167642384
0.14593147939238255,-0.1703179317063807,-0.28866839994430227,9.09814339905553,137.68718966020145,-5.804550349073271,133.74946365633537
0.03889851322758423,-0.1920984068372233,-0.36800833873907696,-11.93555943011188,110.28043188631808,-65.2292361327682,162.43475497593926
0.3474819555692406,-0.1616256438279132,-0.08644739097698945,51.48177676359782,284.61981406353175,-160.62150904085001,382.6276070356927
0.10836210119202896,-0.16783010699892614,-0.3230228431696149,-12.509711980008646,164.06741234219695,-15.25187146155774,172.69888103121306
0.29570424779553944,-0.17549526302545135,-0.12491840944669758,60.64179537238908,237.15743470780814,-146.65257621000882,331.7534594901471
0.05541675221704148,-0.17599559450204383,-0.36074356069642044,-12.885544673764045,126.0006618030077,-50.9414398459683,159.5333259029699
0.48408735660439206,-0.06461122723746597,-0.04664548912447197,27.82021449089096,164.07069065281954,-64.32217210172456,188.52241121849133
0.39957365790031296,-0.13162964014856307,-0.05822465713795666,37.703877435666854,269.8508693473115,-135.82656215057574,345.56217228501305
0.2599762577703963,-0.17670242017321905,-0.15682668060952798,67.5512531066822,175.35075011418337,-120.53834708604697,258.94859299326
0.08288104828237364,-0.1581352085468284,-0.34185221373988195,-13.892314298094021,148.8295310158712,-29.188798292272885,164.21562093148322
0.01292061497197545,-0.1912788799929816,-0.37713407907011043,4.119135139630046,61.72435334582034,-74.00689113773558,141.43433785696612
0.3226726760561748,-0.16267338302487455,-0.0929080770092851,50.2899121313375,274.99167262660745,-161.97513959794446,378.1904622888262
0.45477528024438674,-0.08177018514095452,-0.039107316305621975,37.122616778544916,206.03093040428348,-84.62304546434348,240.12830977791262
0.23607877218288031,-0.17235286714011677,-0.17694571814606586,56.865556292600445,148.6293775536803,-102.96462522194157,220.63008242244086
0.0333990097509084,-0.16358490226053563,-0.3725675410463807,5.540618454086186,71.3773969058885,-55.245126272907775,117.83899291041857
0.3728627086745608,-0.13937482921447025,-0.05986625212569774,39.96938988240276,288.923081083169,-151.05533799657798,376.801227503449
0.05909971097888647,-0.14603913371728405,-0.35945364891830134,-1.2062062172536088,108.13573346785088,-40.57102904895219,129.4729739148584
0.27522668762707425,-0.16371685964117982,-0.12101295168366544,42.11922765750041,212.71228392374445,-139.91159557217148,311.1061421525483
0.4263464710402261,-0.09799895673152477,-0.035893887115548306,41.50858189362806,244.090089836669,-104.54098615642042,289.7542997153889
0.13477799448970637,-0.14193923764056224,-0.28600557633620705,22.14710294727439,120.53779836094124,11.61473167133861,112.93802702683503
0.1104150745845476,-0.13652156749567615,-0.31314239814372324,1.4706473170282806,144.76009215094848,2.749778970749876,144.1091249543607
0.011516025296943106,-0.16121861858152622,-0.38344896574966564,23.0324305916226,31.566956203613344,-58.90284574916662,105.87038097230307
0.15907712376664643,-0.14574030666955884,-0.2558893381727486,43.893668337324016,89.04397253295656,-5.616694515857965,77.72810520404408
0.3459484847923929,-0.14422440018205704,-0.06301049451017504,38.32867588975993,293.6798752386872,-160.34247760864324,391.9052514822162
0.48764692336826326,-0.0412266105202388,-0.02860968965350824,38.99078027552386,189.14361342009795,-54.60399593013386,197.14339828494943
0.25671822183543275,-0.16234630346624843,-0.13761199420040066,46.10106664741774,185.69898077156088,-129.4474073415505,279.85423441332244
0.03549494412387689,-0.1355613127386364,-0.37690116839143817,19.358307249409293,53.68873467934452,-44.91134114310732,90.93397032514586
0.2994298588930189,-0.1592590768692365,-0.09688123295598039,43.57669584863078,255.48980052634073,-156.1844676734762,359.47368344769154
0.08610170515488606,-0.12744608087206655,-0.33736272530117695,-4.726909861154994,137.4638556929337,-18.832825511944904,143.64003795641585
0.18150419523076983,-0.15040766758283197,-0.22669330389199233,48.9584111127683,81.28498264172825,-37.15109153744574,95.73505957357496
0.3987769606858804,-0.11190328488778256,-0.03567145156969953,40.41289391642013,275.0202616704236,-124.14978892270236,335.2528775907372
0.061944231327107,-0.11487881761415374,-0.36168063413751717,11.421185108377685,88.62766133479981,-34.16793962295195,102.34948554517267
0.20062376814021976,-0.15127690270248348,-0.19706203602415834,44.89549121864245,93.6978365080357,-67.74926747050156,142.68205574025825
0.0119799525106229,-0.1319793481654174,-0.3923772851947078,42.813155008345106,8.898036661457965,-42.490413781665026,83.35162905037686
0.3712454546256529,-0.12226122983284916,-0.03658962605430072,36.88247957742222,295.9698236585565,-142.44168127796587,372.70799633965044
0.31995254056258543,-0.14589610823862495,-0.06671454172906593,32.977644887742436,285.3235180759591,-162.36928239449531,390.10138293559527
0.03804060797626168,-0.10494502393809896,-0.38483534963446275,37.511201997119,31.660938949525374,-33.23927940525623,67.35291040647175
0.2574702714324619,-0.1507996659398932,-0.11303740399340767,23.20768419068742,201.92539686111365,-138.80229962535316,307.28565994273134
0.27891088746788273,-0.15261746952251076,-0.09716107590967799,35.02046360355703,240.19456226937092,-148.4405387767369,341.48486986400985
0.11009661417463852,-0.10340938348273555,-0.30756223676074107,7.158302030338348,138.31546303281954,13.600647477449975,136.9205520639739
0.09038578371129742,-0.09693422832257971,-0.3338343129201957,1.21810585819793,128.18864813094027,-15.467472299037837,130.3663838811276
0.44971578881587665,-0.06100321623126987,-0.014127800930709977,52.07768627076703,228.9533561343647,-72.2057727410099,242.58892079499452
0.013180701761793912,-0.1033385648619896,-0.40437094378482397,64.45538507953472,-7.632277437554137,-23.035324057458123,79.35091788506689
0.4702750585516033,-0.04073886673640162,-0.011727442379844133,53.70141690189031,210.2770064837635,-56.01489756940869,212.65252101047687
0.07006333390313951,-0.08947318275376041,-0.35934150759778966,16.43254350036443,84.91945229156384,-32.59612264720653,96.29860281685036
0.12965953476765296,-0.1098843606744394,-0.27879066449417655,35.70563389582824,107.55357039762518,33.407290144026575,111.13296312379404
0.49058146861006,-0.01866317312068038,-0.009271319758664853,46.76406637262579,209.27845443098232,-46.798551678288874,206.80413723354164
0.42338256558936394,-0.07913083852834572,-0.012479407592717595,51.09632113160157,256.9023052100317,-88.69340911844277,281.2159814663917
0.21718466981796447,-0.14824039465970495,-0.1649806738488731,34.853634030236236,120.73130584859994,-94.32295723038496,195.63578417313457
0.34353484095299164,-0.12917540295481905,-0.03831399540963337,29.97453468942672,302.54073007659053,-154.4142675294404,393.5633958162771
0.041020529092948975,-0.07365418485550801,-0.39739889899571473,53.0009920610933,9.607576610057862,-20.183117603830183,60.11883485873876
0.010454148161873452,-0.07934265134766723,-0.420816153478951,86.98355081460525,-19.82846302712045,-0.6537768068154044,98.4141171375801
0.05960659322475844,-0.06885579209497969,-0.3802750616171221,37.933518977094366,40.05734616369031,-28.996710702384384,63.61174763724251
0.14867799422784095,-0.11500644856028426,-0.24804203218769744,61.773536287918304,66.3719696446752,15.162981572045638,69.36083113072591
0.29473754624890885,-0.1440226307249797,-0.06927383153515981,21.079874355925526,267.8709275651431,-157.81170484903774,375.85384393786995
0.023974514053133868,-0.0639922432121017,-0.41995316943426053,80.42221426030073,-14.857281667393721,-0.9189607514452653,88.80236664212761
0.3967039917006208,-0.09482756476850487,-0.01212000660251722,44.807664259555445,286.4563477359659,-109.43313591226897,327.3474603338682
0.24082558485124447,-0.1462832082588794,-0.12238812016004713,20.478401077718154,175.45768514401882,-119.71524808928845,265.7195762707181
0.007792620105287448,-0.05536627452644953,-0.44092968069834154,111.56304712332783,-22.633885783159002,20.00674260449631,129.16857506462338
0.07789428316491452,-0.06386927169315078,-0.3598997440575476,25.096627000291733,74.79570880518462,-39.93437182945391,95.55825918043314
0.009319507713091852,-0.03334799894536979,-0.45854887986436504,123.18025641010829,-11.426973673150684,36.271408488177435,143.73021277652742
0.02766585200292787,-0.03747410096130668,-0.4367924014674893,94.13039480545518,-19.061325238210344,18.142052372604184,109.56969293160661
0.010323615367681312,-0.010952326107551515,-0.4788014664636719,139.1787134494816,8.405034676994745,50.85596023750966,161.3398371375448
0.09552101673933631,-0.06394236829544452,-0.33314997026160265,3.9293341219309355,119.75273718573486,-29.772732516136706,128.62680909565933
0.04478980208428929,-0.04111968930826367,-0.41555410064605885,69.12660230667939,-11.58437605561258,-0.39862830353503753,75.59067525299764
0.03047552598050708,-0.012037349542385422,-0.45699723704392065,103.95685550017393,-16.365852216959524,38.94235978739791,131.62725255721364
0.04943984521212877,-0.013014372932065612,-0.43491143086227124,80.19122415366294,-23.891537797851868,17.355949113821282,99.10104228239534
0.16633792505321612,-0.11963138098679756,-0.2171013501264662,60.39240491919581,53.97861804134365,-23.707184619074326,70.6195937933274
0.06203340195360916,-0.04035100786864592,-0.3954653954175754,51.19937376460531,6.842234598641852,-19.817231631162745,59.12733657251187
0.2573995798883651,-0.141579302346316,-0.08892844732937821,7.814540423071914,217.26912361135857,-134.26756945091813,315.6777175958047
0.1113912935018735,-0.06874383529300314,-0.304146058877275,0.2445588866089281,144.78730768522416,3.6739075185048193,144.80506911840402
0.0673049081053589,-0.01300061256848444,-0.4122622854986689,63.235151773411104,-16.65256719763613,-4.554043880596939,73.42505005266786
0.07951309607967195,-0.03879500430878375,-0.3722606547743015,38.17176500826108,40.31675091444214,-40.13046267232441,79.84312499661361
0.3157741551901745,-0.13268445491040162,-0.04034429663215122,18.207730606588257,295.39894996550436,-157.7822805784411,396.10511330419024
0.36923787576146017,-0.10743153810273919,-0.012308101419631456,36.86454232661218,304.0829592197347,-129.95567642498509,365.07669735693935
0.18222010073289288,-0.12292878770893544,-0.18626112345285195,41.311397255485126,69.83980543638485,-56.28794353057181,114.90886728476107
0.27026867452986963,-0.13969385023322486,-0.07227693543539643,5.589475149882649,241.83216901851458,-142.72915991393546,343.9144727613141
0.08363054022481184,-0.012648213375455152,-0.38799410114828736,53.443088763868666,2.342235644765168,-30.74148907918226,74.64309043297791
0.09546856230991144,-0.03680228035982078,-0.34604693184811053,27.583348676430433,77.4014847367267,-57.27153041818502,120.23694694814904
0.1265022887242172,-0.07822651844837579,-0.27177851849269963,39.86767474967343,108.07131922631037,48.77282059466746,126.87258731048647
0.22412056878610567,-0.13944081288620955,-0.13230947534797666,16.112137564848656,149.14696469275944,-106.40229029137635,232.52028681216922
0.09720256915992904,-0.01157276014309826,-0.36359617016771195,52.2003163850229,23.92622826397715,-52.415092121136695,101.44164031874821
0.34093777461810554,-0.11677648679177824,-0.012819958383881946,26.224980575665803,310.70536213218065,-143.86248994937154,388.8014629865878
0.28768721405916714,-0.1329030853599756,-0.04235582243286634,1.956481880624974,276.7560114829048,-148.91541234196507,377.6025022300396
0.10765349893683004,-0.016857755963684738,-0.3351911924953015,40.01658731420753,73.01831514948549,-69.87769915061627,136.60064545814407
0.19531926433689667,-0.1235945542493776,-0.1544309997704998,12.710397125474884,96.7234198009487,-76.414120739748,160.6391440507578
0.14019481573535633,-0.08355281836482725,-0.23964876565114274,80.63464985958078,49.25734040113731,30.34177965488378,87.85359823585698
0.23676596578296788,-0.13222919785668205,-0.08644297076769503,-10.618832874786092,190.16880975809258,-117.72556377828816,282.6202960263077
0.11629199439848543,-0.040954855750972574,-0.29341664039078247,-4.331998440537959,150.62101632273328,-7.327192913159209,153.3590885613376
0.31195549653566373,-0.12286032713168415,-0.013481911048577544,11.18552209908318,302.80276782341946,-147.664844310635,392.2274133597148
0.11493728307303593,-0.0172753787016281,-0.31049866542979243,49.51620454306428,89.88144924274306,-82.75759068078985,163.1759714261359
0.15248976032039763,-0.08880225234622868,-0.20791173261934248,68.5352565720971,38.48087897064909,-13.273313638888538,63.78953747482877
0.2587087533366864,-0.13031727300993812,-0.04674323841206912,-17.179762314870594,243.5217896957537,-128.38439566620778,336.495634306027
0.12541303131409923,-0.04772992158633492,-0.26247250956933565,38.56332488278363,111.77675967402597,57.80547205873869,140.33926154639207
0.21608871281465383,-0.1240335888972449,-0.09587055470900402,-18.613262317483045,166.28391335626213,-94.25364095489111,240.29799411025186
0.20311591824784692,-0.12107501881579648,-0.12059389726955638,-10.33996721721163,129.4172108669769,-81.99938661931495,195.8713795483652
0.1644884467617691,-0.0952783814699732,-0.17700725217589158,33.06527328980026,56.57335306764031,-40.37198828250254,85.51570328653531
0.2823452600986416,-0.12580743199625247,-0.014309160367937945,-8.098377415514967,279.84468589419555,-137.15201594863524,370.2390393521551
0.12178137347291494,-0.013492241291398348,-0.28148430061754803,21.063178807039407,134.05950722612636,-63.4160674497994,166.30298385799986
0.1329027651727638,-0.05129884076889064,-0.23072765439448928,97.03415349403896,30.97661943501373,33.341577181306036,103.46192612625087
0.1761223231530944,-0.10145144022524408,-0.14534222353137088,-2.2675938271904315,85.48011197991968,-53.124769004766726,126.38255000421302
0.23044442208830768,-0.12454180376962733,-0.052565417833596306,-37.09804878764662,205.70033612008558,-100.2386615468117,285.4178382912915
0.12500299572358736,-0.01599078351280194,-0.2531210541003415,38.26666486543655,109.6665829395374,64.5359086679057,147.6115618779572
0.25237088623497483,-0.12570789056577153,-0.015706891169095905,-30.069298487865282,246.92272423892058,-113.13352167601127,328.17277269168574
0.13919253719045596,-0.0566853347413426,-0.19958328946830312,69.30621037922046,27.1618012079916,-9.431160020080299,62.653595835870995
0.1843375655563015,-0.10467897395679056,-0.10936229755616328,-33.34753633223705,112.6063801466353,-54.53748037873238,162.69729770503838
0.204802960739474,-0.11557304659490318,-0.06392174900462749,-48.8645379563448,165.79132945701048,-70.41989758178627,229.8971740369655
0.1470351032596704,-0.06688977012222042,-0.1684127742710924,22.868594376173796,48.46534589560129,-19.62848049413806,54.03109997456144
0.1263002677285678,-0.01740773244740198,-0.2227473548482281,113.02839872835062,10.559917963320032,-10.469065253433435,109.6456298729329
0.22252518392515155,-0.12242025653634388,-0.017850662128721106,-54.05782392894502,204.36926944446938,-77.06108898534333,271.204791462349
0.15836899734380228,-0.08094151868026801,-0.1394270084405293,-15.483123916594336,69.85669920388645,-27.36886424145392,91.91544848206051
0.16428155936687017,-0.08779227568889432,-0.11024801059139161,-39.67152287880654,87.27092528078805,-27.105427936687533,121.88653455863303
0.1818739441875612,-0.10366551172579357,-0.07365475488243117,-52.49863894747371,127.25648353009842,-37.20280627930485,172.57826705446325
0.12564884063903647,-0.020142653762223264,-0.1920898398057322,63.916716342407156,18.316139227830178,-13.860672107289009,61.85850630667603
0.18670742153011427,-0.11046105737224005,-0.035502195781109136,-68.84159941798565,147.56749297575905,-36.662238551690066,201.7584502294608
0.15585697071100288,-0.0830043221714251,-0.08951688745478359,-52.52205701660793,81.6987823527499,-5.436910159162423,117.52840334290599
0.14642174553442855,-0.06897734998015516,-0.12217556117186135,-28.129886066724442,56.941006353809485,-2.8357807539686135,75.2292341674598
0.13392969037836375,-0.04667726936702176,-0.15581082919902234,9.362538961977936,35.53443044471871,0.06359913594187105,31.900980045525408
0.19486410155987727,-0.11737977334145194,-0.01461538861290751,-73.95946840677992,165.5667031741678,-38.48766705480325,222.6464979863038
0.16191512111738182,-0.09141043333599677,-0.07159082375687043,-62.257784497014164,95.56180982843517,-6.810276664878359,138.19080069006978
0.12432929214566252,-0.02412502647944608,-0.16920412100398452,36.132925042027054,14.14063355615312,-3.146303034209629,32.00470286504979
0.16220697105957713,-0.0990508421154372,-0.040378062233931866,-72.99787857270296,110.57211383305264,-3.5836288280489725,160.2028075892198
0.13229346907755296,-0.05135492200096315,-0.1273899327855656,-15.234473541756572,36.43323787180012,15.183202737742366,52.97263577020003
0.13826625722791736,-0.06613588663263612,-0.0964131425548409,-41.015190867192906,48.55713032845978,18.084753242968368,83.7424364081282
0.1218614976000482,-0.028678155984875543,-0.14625843966611718,7.997674956097366,15.190274854916595,8.470807536141725,19.710000381302958
0.14326908418942544,-0.07789151990641155,-0.07071225934185937,-62.19328958110088,63.290113550840545,17.657577390535717,112.89479270450616
0.16591715961634673,-0.10935708747518208,-0.011289879195635177,-87.14465897121035,120.53075249050625,-1.1167836388426835,180.63556355699373
0.14719516544800929,-0.08875245696700307,-0.04700393196886066,-72.03763813407446,81.19684112508145,12.918485232121483,134.6560015643705
0.11378597302121315,-0.009261668977690192,-0.15368563078514458,27.524316126481132,1.7156724561836825,8.264976987981026,30.302447640239368
0.11671110173123472,-0.030377770203279312,-0.12454226230505921,-1.55811837849466,5.675618826351638,25.280151978240298,44.280265582705
0.12234302329081638,-0.04881782246240362,-0.09929480696906401,-29.175012999698783,23.29318817835886,30.93767275863857,70.31892955751603
0.12658887796225607,-0.06353167170097553,-0.07331340173933198,-49.505972092611145,38.7389952462936,32.486707603972675,95.05535837565185
0.13499558509195927,-0.07746853735903289,-0.054600601300613116,-62.98799139944145,63.306083181400524,29.626665850808415,120.81344395213335
0.14014924031541323,-0.09822470778807647,-0.013320681232882214,-87.30732963259727,85.0875524560916,23.96041121152709,154.96300299340632
0.10490646752869752,-0.009651236620894675,-0.12816211891389823,14.1102705119323,-18.812626697415027,23.831290715777712,50.22207841633462
0.10666061577646244,-0.029854549232882704,-0.10011800676546312,-10.77294622842577,-7.404767213937674,38.61561635909405,67.56192174058991
0.12341909820141748,-0.07645369971342057,-0.03786932080291866,-61.56817911448845,51.30603662745273,36.15568989116269,116.20443649509488
0.109698522785338,-0.04754082560834261,-0.07410663456253314,-33.3392015076008,10.091258966567523,42.53064474979296,83.52447311624177
0.11636205181985752,-0.06481350140158905,-0.05216115947389327,-54.72288393160421,32.23526960849222,35.60619927345168,97.98529394718244
0.11295338582806395,-0.08539877140511756,-0.010652795679473914,-73.5024677380328,45.26647118356246,43.838205399229956,128.62436889117262
0.09287797813206607,-0.00981733357297945,-0.10276357716787698,8.206869741339151,-34.33818832676934,33.49202730280038,69.95298854103328
0.10692948241082532,-0.07219959357851424,-0.02500982614729569,-62.2819389389911,30.981338745744296,44.62764711678713,112.88641095380282
0.09318205494582749,-0.029381518827782577,-0.07563960418735166,-14.982612259901165,-18.791833094948657,44.11820720288701,78.32821670812612
0.09706563581677166,-0.04986426106920404,-0.04966060022349278,-37.469874889114536,2.7831936745331234,46.009621430079704,88.69430310020219
0.07771866496225487,-0.009797970894516764,-0.07795978602940445,3.2480092057401215,-43.106683554983064,38.955125757451746,81.0015561842004
0.08577443371863468,-0.06915601205729169,-0.008173757919616498,-59.011879077741355,18.384489439644227,47.00501584020075,107.3951075904914
0.0779628136407932,-0.030079466012309763,-0.05233827880724223,-16.832768911599764,-23.797489518655368,46.11397515319194,82.63522909852492
0.08229735584633496,-0.05118381600557971,-0.02899503396675257,-37.185698365406424,-1.8698373470301703,48.96707275740549,92.25000753569309
0.0602990022612851,-0.010000421843908832,-0.05435014628482543,1.495749960257161,-45.00723614470712,37.069929949457354,78.85269345036222
0.06406566303340974,-0.05122662601300194,-0.009546188217151419,-39.2226662130464,-0.0412666459372133,46.02110834156718,88.82920633933179
0.06099285910725803,-0.030769843569185096,-0.03084698124524754,-17.461154642539412,-22.584151034955426,43.06077499875027,77.3516740362322
0.04121199218328047,-0.010211353870668651,-0.03205954509710168,0.4623012749722726,-37.46761126382499,31.016309178842747,65.6307187677849
0.042103910653457,-0.031251033993347,-0.010146268118592094,-16.829554002293296,-15.544276680288931,36.86269327798244,65.87738343871746
0.020942108575276296,-0.010448844544102743,-0.01053844674455695,0.3708245999472659,-21.581421688671668,24.824555946997222,48.194127535924686
